F                                       
   1.00000000000000     
    15.0000000000000000    0.0000000000000000    0.0000000000000000
     0.0000000000000000   15.0000000000000000    0.0000000000000000
     0.0000000000000000    0.0000000000000000   15.0000000000000000
   F 
     2
Direct
  0.5000000000000000  0.5000000000000000  0.5474623673922330
  0.5000000000000000  0.5000000000000000  0.4525376326077670
 
  0.00000000E+00  0.00000000E+00  0.00000000E+00
  0.00000000E+00  0.00000000E+00  0.00000000E+00
