C  F 
 1.0000000000000000
     3.8602538258502412    2.2287185854946165   -0.0000000000000007
     0.0000000000000008    4.4574371709892331   -0.0000000000000015
    -0.0000000000000014   -0.0000000000000088   19.7906801652236979
 C   F  
  12   6
Cartesian
  0.0000000000000058  2.9716247806594822 11.1811240699312009
  0.0000000000000054  0.0000000000000016 10.6763892867895400
  1.2867512752834196  0.7429061951648658 11.1811240699311991
  1.2867512752834223  2.2287185854946188 10.6763892867895382
  2.5735025505668356  2.9716247806594804 11.1811240699312098
  2.5735025505668347  4.4574371709892322 10.6763892867895382
  0.0000000000000066  2.9716247806594818  8.6095560952923833
  0.0000000000000064  0.0000000000000012  9.1142908784340477
  1.2867512752834220  0.7429061951648639  8.6095560952923833
  1.2867512752834238  2.2287185854946183  9.1142908784340406
  2.5735025505668374  2.9716247806594795  8.6095560952923762
  2.5735025505668361  4.4574371709892322  9.1142908784340460
  2.5735025505668423  2.9716247806594698  7.2306109997155028
  1.2867512752834243  0.7429061951648599  7.2306109997155126
 -0.0000000000000021  2.9716247806594800  7.2306109997155108
  2.5735025505668396  2.9716247806594689 12.5600691655080805
  1.2867512752834172  0.7429061951648640 12.5600691655080698
  0.0000000000000005  2.9716247806594769 12.5600691655080716
