C  F                                    
1.0
        7.0599761009         0.0000000000         0.0000000000
        3.5297626311         6.1142086006         0.0000000000
        0.3116565943        -1.3660705014        26.8314586284
    C    F
   28   18
Cartesian
     6.355417820         5.047213470        12.433538169
     4.931550628         0.462228954        12.433659715
     5.772247546         3.523796827        12.202702156
     3.284074114         4.244467975        12.202735741
     3.904004372         1.729176881        12.202670170
     8.732995258         3.987997514        12.433457406
     1.703313220        -0.085059336        12.941918755
     7.380202595        -0.294219318        12.291012774
     6.343037854         0.943428696        12.942093876
     6.853746631         2.245741648        12.291138317
     7.849886385         5.203839766        13.064643470
     4.320174154         3.165793037        12.814169104
     2.256495515         1.431688482        12.290976790
     8.443862419         2.525052746        12.941848387
     7.849920566         5.203843128        14.598636441
     4.320181093         3.165805751        14.348171670
     2.256667053         0.823724919        15.121724002
     8.763314193         2.340688634        14.470724462
     1.384039308        -0.269501451        14.470754849
     6.853573261         0.009810608        15.121984684
     7.380150342         2.549567896        15.121767182
     6.343117057         1.312108907        14.470933968
     3.904099866         0.526197605        15.210111385
     5.202917386         4.381755868        14.979236189
     2.825693234         3.322580967        14.979172218
     6.813880526         4.125271833        15.210138573
     4.931691982         1.793167357        14.979378525
     9.302130565         4.845927473        15.210168959
     0.473198983        -0.100579855        10.956445966
     6.945016071         2.016398305        10.956566712
     2.012356539         1.467101386        10.956393190
     8.246919856         3.915209844        11.143681621
     3.313061644         4.009223125        10.858658817
     5.554401425         3.616107837        10.858567658
     6.535482427         5.504588352        11.143783175
     5.237808436         0.077480075        11.143988682
     4.093295140         1.871614690        10.858574855
     6.842726721         4.360202345        16.554190708
     4.716530525         4.454600461        16.268903223
     5.238018007         2.177808172        16.269063151
     9.084048631         4.753045667        16.554190708
     3.005782445         2.864998981        16.268864840
     4.093253289         0.383502822        16.554153924
     2.012369177         0.787997769        16.456238033
     7.533162049         2.356070229        16.456305203
     6.944739390         0.239177550        16.456511510
