C  F 
 1.0000000000000000
    33.4854116738278549   17.8456780041712406   -0.0000753498200683
     1.2864233108072234   37.9248358875129341    0.0009496217734121
    -0.0003329415049817    0.0005416792935554   19.7534861649480575
 C   F  
 868 430
Cartesian
  0.9120020694731080 27.5262689845847532 11.1161252609154193
  0.5615401902504349 23.0971381780682314 11.0699596540409608
  0.7476934515377641 24.5691134613694970 10.5784561710676019
  0.0311460402899683 20.0836221598886056 10.9619111678536925
  9.1748736949105769  4.8794457133323430 11.1605533615467891
 11.8232086779986592  6.2276637580653009 10.6460156213346071
 13.1951142607461094  6.8070951803138415 11.1395803790303347
 16.0794961645379715  7.8481132546844625 11.0136373133212295
  1.2366831488202956 36.5000195009428836 10.6898311074041956
  1.0882631424626659 31.9841334511839754 11.1535283397110625
  1.1350887705458477 33.4760147189629507 10.6612552141573378
  2.4460853400605354 34.1608214730755151 11.1747077240728139
  2.5380193101018258 35.6303934933341466 10.6695561746452672
  3.8162460005644565 36.3402523357053582 11.1909782545556400
  3.8923895570909992 37.8048696759831842 10.6736468740624737
  5.1660657553039977 38.5357043661722756 11.1857627413652754
  0.9773577736108775 29.0140996954956201 10.6280501935782858
  2.2928227968138648 29.7062416059596259 11.1314392101224264
  2.3436485493292034 31.1958142054417067 10.6361037044546869
  3.6565345829697105 31.8859237280232399 11.1383559259725526
  3.7004793807288134 33.3787451062555576 10.6497967841611203
  5.0129159725117436 34.0689018607343570 11.1539347864080334
  5.0664659793863418 35.5593578054189550 10.6675429966501714
  6.3717148473165164 36.2596892956341463 11.1697197775293926
  6.4205027964828627 37.7495984222821974 10.6719220964373651
  7.7314702550669478 38.4480555696352937 11.1768025566124081
  7.7841869498664487 39.9317962742419823 10.6661853204524046
  9.0930623037752323 40.6325361395899520 11.1723909351152173
  2.0656917711736957 25.2647290302264267 11.1160085081514470
  2.1686460430842960 26.7441768532979864 10.6057125706238704
  3.4865520060855033 27.4317399920914049 11.1135855500230072
  3.5486452710799421 28.9209652162273869 10.6132874848095593
  4.8625390514128926 29.6120229801190682 11.1104019591531458
  4.9118009594097627 31.1025047155775951 10.6196613801142892
  6.2203054339735715 31.7912242460120851 11.1284604305602866
  6.2693656173166907 33.2850875064485550 10.6413868220783030
  7.5722621532314305 33.9794806762350987 11.1595439448794522
  7.6288137658448951 35.4735551412059564 10.6670359883686263
  8.9297687091119133 36.1710370377610317 11.1882509969928989
  8.9902456248707470 37.6589287842623648 10.6831643557757303
 10.2947027761095669 38.3591539719626340 11.1985962474067513
 10.3541100227566147 39.8402896672884737 10.6790552969028116
 11.6658164331994225 40.5299420741428165 11.1832222228245346
 11.7233532114592265 42.0085679909666325 10.6617574372514419
 13.0496255230191611 42.6734935598894936 11.1534817385797407
  1.4509637609014174 20.7937451459900124 11.4155822661180952
  1.8203637118709646 22.2344564115645973 10.6959755057024548
  3.0614579940979434 22.9432910042222815 11.3123610608083407
  3.3104241573209228 24.4453156573040253 10.6451047810545187
  4.6157617167832710 25.1120404398069894 11.0922481119523919
  4.7378894316125901 26.6335233859003857 10.6010511430622927
  6.0550111517660774 27.3323123508643242 11.0868876205771549
  6.1140117771147278 28.8248091409239926 10.5824828843273959
  7.4260201051772690 29.5046549516463514 11.0821966867352550
  7.4750785643858420 31.0064454435916339 10.6081229291511878
  8.7744541605563224 31.6921490986418419 11.1306315455600675
  8.8294421942961989 33.1942743616181488 10.6551725118966676
 10.1229642399144737 33.8855864999311152 11.1906852543986872
 10.1887126574308535 35.3819658242614068 10.6999533296222094
 11.4830357084109735 36.0766663322704844 11.2356420247814910
 11.5557491625467517 37.5627900844870695 10.7178314825172123
 12.8636636330667571 38.2487877961738576 11.2254072236862719
 12.9261151713103644 39.7228376970983064 10.6941821529664995
 14.2349704295838997 40.3674091901438103 11.2066020127764432
 14.3039426039584434 41.8571039377711216 10.6287621014299027
 15.6501581516262682 42.3885724237124180 11.0859959709994644
 15.7531166621372236 43.9456680949120368 10.6043987097028136
 17.1121530857194699 44.3267202981741733 11.2745516122244105
 18.8030632844295376 46.2808980736116737 11.3411751791903086
  0.7399368813783885 16.2783291401185437 11.1279484582787180
  0.8187138373041011 17.7762745615411397 10.6400762937840074
  2.3239856576067286 18.3299352793239763 11.1985887654426595
  2.7070567123901612 19.8652033361860596 11.4027695299815353
  3.9415138880831067 20.3995762955073268 10.5778695086195498
  4.2664480489786012 21.9428483945518416 11.2403132465386371
  5.4497261619623547 22.5752833596648550 10.5081420235756582
  5.8227786079180648 24.2998504136076647 10.5195623594839596
  7.0409754093705690 24.9687581752564931 11.2001789114032615
  7.2877834540984514 26.5168413807653032 10.5677126337434828
  8.6130967116699821 27.1807390066000529 10.9940497825427563
  8.6696958308910261 28.7125986568888543 10.5411012055786895
  9.9680895781843635 29.3849729872421328 11.0589943379165891
 10.0276028289608554 30.9062580207932953 10.6127956137773349
 11.3151533722256126 31.5866084944394565 11.1636843177511302
 11.3820783718332432 33.0968960741826095 10.7020410715020056
 12.6638514641021995 33.7763529711224422 11.2676348854679347
 12.7462264273410071 35.2726840952923126 10.7775559465211668
 14.0288099677345635 35.9443191317724597 11.3432373257828143
 14.1184309687935823 37.4117019247439728 10.7518827215586477
 15.4325602031067000 37.9651480325603217 11.2511960288884652
 15.4909165468103716 39.4847394745011187 10.7608251124362564
 16.8148194680708869 39.9354167078303419 11.3423822878061813
 16.9270131169861173 41.3319019924677491 10.7339878142402210
 18.2152812791028325 41.9648036011204226 11.2841855926106458
 18.3029024080413194 43.4253101866315561 10.7665435409280690
 19.6988250130655160 43.9853650433111980 11.4533930838385327
 20.0676652101016941 45.3512120798765750 10.9104572950354495
 21.4236045015129655 46.0385683033173194 11.4234233157904583
 21.5686765950290180 47.4265395590595702 10.7637875714586713
 22.8796432552098068 48.1389528377655793 11.2593207507302075
  0.4699314463232267 11.8598833313586187 11.1578134100744801
  0.5234788531035107 13.3386610625641158 10.6468556235336145
  1.8917076304534557 14.0360478772385058 11.0676040014514303
  1.9441564657020169 15.4993479228217463 10.5370462539788825
  3.3849294755174064 16.1543433356808990 10.8944887820362801
  3.4020189713343938 17.6027930793332885 10.3703466089438443
  5.0526466637934586 18.1045623168321654 10.2698057790228514
  5.2033381456699743 19.5475014355226087 10.9034797736883231
  6.5265746175870740 20.2411784103046557 10.4061160346492443
  6.6791208965393150 21.7559553379830639 10.9545627233181015
  7.9365692081053449 22.4623189790236957 10.4378401899949278
  8.2280203961604084 23.9864308707255454 11.1258870148591154
  9.3854949562769008 24.6642616565972759 10.3602268119146270
  9.7916676548177985 26.4035930514296666 10.3420568437858158
 11.1021864973682582 27.0312018934923444 10.8895662899599497
 11.2041739002951655 28.5978857902874282 10.5115903547131655
 12.4871253238148778 29.2677226809720992 11.0850592357921478
 12.5705390947069873 30.8005948414652906 10.6604027611364991
 13.8475449497094250 31.4621267486497764 11.2473175918401829
 13.9301472372676152 32.9721495422421924 10.8142614672179249
 15.1936762151035474 33.5971928721637951 11.4502035396390500
 15.2906043970182779 35.0790728711207507 10.9634180962900398
 16.6381012834311193 35.5237331812873691 11.5363551253702603
 16.7465678820693498 36.9009879957172302 10.9047757891357442
 18.0308500318981650 37.5319878907885425 11.4186233306926557
 18.0660784896308826 38.9598293402601215 10.8682348722748952
 19.3818158468422901 39.6148364323509981 11.4013880083056591
 19.4748340237325266 41.0756872661974057 10.8962900295900020
 20.8028122443382379 41.7022435051859759 11.4901309000181673
 20.9040458797144915 43.1630801248366680 11.0450901174304121
 22.3258162860019169 43.8113999839085935 11.6458316400798605
 22.6874321104185164 45.1995998727253721 11.0700094210303082
 24.0468518684228663 45.9108134702638324 11.5165158206611711
 24.1516188099804765 47.3072359900073423 10.8556392964893540
 25.4791859208526361 48.0124720661574074 11.3062208545451348
 25.5360319297727223 49.4496234980791769 10.7181510700361056
 26.8503840352770169 50.1457811270784859 11.2031024529915957
  0.2689176909586017  7.4172756019294592 11.1655777534211058
  0.3202235288851074  8.8988039183592722 10.6589619294884468
  1.6475509356304536  9.6041475069276103 11.1331477742400544
  1.7021280642623990 11.0815528633798781 10.6105647995495183
  3.0481187400006808 11.7930593460801028 11.0551030490320059
  3.1129596626710758 13.2549206038051963 10.5005459285375764
  4.5191436088301389 13.9521442059399288 10.8771475869293788
  4.5486621167437020 15.3576044156265556 10.2509920036168616
  6.2457854332480212 15.8594887357958036 10.2033666800582026
  6.2895224340217384 17.2882090779381485 10.7841802906793731
  7.6775103787242260 17.9721755026089802 10.3292924007252722
  7.7708919358365076 19.4419304300258169 10.8677638027674099
  9.0849259095088026 20.1501493344947065 10.3555331831707740
  9.1829070452758206 21.6425634015389363 10.8759639460982189
 10.4758973419501231 22.3635209430943256 10.3533309406440903
 10.6328349115704892 23.9132278213439555 10.8227865888296808
 11.8959851939989925 24.5799478236806266 10.2225335616001320
 12.3093302722567426 26.3029362091473580 10.2723988360488772
 13.5744004419027640 26.9145140742558411 10.9253816812300570
 13.7313332096389402 28.4903341751946719 10.5656784046628349
 15.0017953785257792 29.1495258453955230 11.1641476312663048
 15.1157386417413164 30.6725464445887823 10.7592381978509728
 16.3892431174351216 31.2519492161697165 11.4075216794314898
 16.4822528744359893 32.7600660802369390 11.0240156631169022
 17.8580862978376302 33.1484959797339798 11.6024747773714516
 17.9479532154237376 34.5582674076487919 11.0783097177600336
 19.2583537228058930 35.2076559300957044 11.5145050949190075
 19.3001981378354728 36.6523784406060997 10.9616170678606561
 20.6106446341505603 37.3192062522375778 11.4564056060667134
 20.6656442261278563 38.7877740985774224 10.9509538176287009
 21.9850090456549481 39.4475964716919378 11.4774321890055084
 22.0617847120857178 40.9222305379816120 11.0101995608222438
 23.4182151686871940 41.5607392378458655 11.5654107942916422
 23.5124726481561979 43.0284359765059037 11.1471256313621137
 24.9692993806557304 43.6858477873037856 11.6611251863493717
 25.2892331403257913 45.0820896758788194 11.0805626283386687
 26.6708985580507729 45.7718166778520157 11.4638571944028804
 26.7386847135254513 47.1879290775379090 10.8414178125462684
 28.0755392172302578 47.8785149699014170 11.2726959562348235
 28.1172379342368863 49.3361781490208031 10.7190803330619548
 29.4332106510774132 50.0302594622168826 11.1970406824913002
 29.4768620159626735 51.5018269732778791 10.6717337249252626
 30.7876832538043672 52.1956845876696605 11.1720709324968777
  0.1032633360431488  2.9808554911714751 11.1954766153644165
  0.1541406829753126  4.4551574679094230 10.6737327669400255
  1.4705847253487172  5.1542797990458622 11.1610163283843242
  1.5212069029468702  6.6351086394752850 10.6484954834663501
  2.8378530068822396  7.3406998089535858 11.1365849587790802
  2.8909288888733982  8.8197806625493520 10.6139071409304968
  4.2143006961644414  9.5303121179721479 11.0885748976178355
  4.2797784769507841 11.0020681355248797 10.5425008971293206
  5.6329946448853141 11.7216022011268457 10.9953210186764334
  5.7187426181188963 13.1273804312851716 10.3369721052330217
  7.4299668459160886 13.6447375035793481 10.3562357114173427
  7.4546021842204224 15.1016998418790678 10.8113881794428810
  8.8786648716883754 15.7354073214408974 10.3427164714892896
  8.9409994443300729 17.2009302986645949 10.8407190113778960
 10.2790936420501922 17.8900549930355979 10.3392806067185425
 10.3414696039190623 19.3676550055252683 10.8495227581803118
 11.6493633119061162 20.0724756297657230 10.3468198735806531
 11.7147378738850367 21.5734775038022484 10.8529715370315412
 13.0134812428504709 22.2809509520782001 10.3488747818861828
 13.1067279868577611 23.8260156995486696 10.8111113279144284
 14.4327192739652492 24.4910630866339112 10.3116855066653805
 14.8249717256299913 26.1763401590607785 10.4160935288120680
 15.9818583729078352 26.7553331175389886 11.2562443278450424
 16.2629017878182225 28.3299741016115441 10.6931180902599134
 17.4901290130743590 28.8563640955082512 11.3632334052031592
 17.6621796630727630 30.4104358594756832 10.9100312361635670
 19.0276477576636474 30.7784782409954936 11.4524352859363905
 19.1379096880374462 32.2273663649649578 11.0261426218957919
 20.4506346895367024 32.8722467843918480 11.4729456055359300
 20.4987524412191391 34.3477081972853782 10.9810576819147823
 21.8118994340324193 35.0153903399790991 11.4598986491070463
 21.8673510941191616 36.5000370386956661 10.9622381476197646
 23.1815730682524865 37.1786964940279958 11.4633075676614080
 23.2464511281572257 38.6591812423949150 10.9748990787531433
 24.5839023450027305 39.3287772584868733 11.4761465517608876
 24.6569830283648592 40.8058087875348647 11.0168181861373888
 26.0491605878951056 41.4524969401827406 11.5049160449461567
 26.1271822923602031 42.9150790934371571 11.0780089316632679
 27.6358927139935595 43.5486756112848212 11.4815521417603961
 27.8892903873000151 44.9508878011052246 10.9256350476564332
 29.2747712398513791 45.5970389577200734 11.2850353188813273
 29.3210184723114224 47.0616303677235948 10.7490970423374179
 30.6495415822675099 47.7508743746604836 11.2026803676066713
 30.6898884415904369 49.2298029220417774 10.6860633339942854
 32.0046287613636053 49.9228418244034060 11.1738273503422079
 32.0530047554049276 51.4079038950132627 10.6709275815603082
 33.3618486415421032 52.0998563594878377 11.1829902795318414
 33.3648972246615330 53.5689885638623124 10.6730820817588619
 -0.0008902636412148 -0.0029435074857379 11.2587129539254214
  1.2547600794557134  0.6671125853642050 10.6904686168940231
  1.3569031731867922  2.2292958367220139 10.6732377575759720
  2.6745510534738770  2.8837879339624024 11.1803994861093727
  2.7244642424021794  4.3625729180737949 10.6576897270960309
  4.0370950596426374  5.0710658742060657 11.1493206549009720
  4.0888761475971549  6.5510334946669637 10.6310818614700686
  5.4015918783716428  7.2554608358406689 11.1253301432884140
  5.4597611324931377  8.7326246667001275 10.5943705652576234
  6.7795453423578618  9.4311008723831833 11.1007541367336806
  6.8712436805131034 10.9044513794034952 10.5756921424919241
  8.3333639733466729 11.4686815809686422 11.2097687279578508
  8.5942622115141116 12.9860119915906029 11.1274393517358110
 10.0651524492055700 13.4905275517960295 10.4374691652324554
 10.1522158062898598 14.9791211568346725 10.8686150133463961
 11.4969857338168779 15.6362519702457323 10.3444389743959562
 11.5486359800926088 17.1107023627430230 10.8389194998758356
 12.8628030232711961 17.7937263036616287 10.3268426237832163
 12.9043167941540702 19.2722322584047205 10.8456860954644405
 14.2063699530743150 19.9687831170246497 10.3576129694416483
 14.2384877823558220 21.4584992246708950 10.8861419306684191
 15.5495508326019856 22.1438720238765683 10.4390434321964030
 15.5969752545835085 23.6403527895826571 10.9549603652634495
 16.9674571704591912 24.3175335937711559 10.6616910659575481
 17.1117783729241850 25.6574424103861993 11.4834349770539230
 18.5464288473348056 26.2774670690350298 11.5196768704365340
 18.6481983215557214 27.8585930062477800 11.0542024866238524
 20.0278178103509994 28.3640194968212640 11.3084059772101444
 20.2132989126399742 29.8397837585902082 10.7821235130398527
 21.5212585426766587 30.4982154606353326 11.2946766192828978
 21.6616084656474399 32.0296280754968166 10.8927498181576983
 22.9724750106466793 32.6806615093369857 11.3969695846770716
 23.0474100996312323 34.2027864895587683 10.9400921489963476
 24.3476620303387818 34.8884922258229793 11.4468284338712785
 24.4291170432974454 36.3854187123657837 10.9552339422913718
 25.7455673811241859 37.0771290080168541 11.4506319651305866
 25.8281086881748827 38.5555077310907848 10.9432551139113503
 27.1878345637968124 39.2405987009578965 11.3952545380376531
 27.2589277094720046 40.7035944702573218 10.8932826285347737
 28.6994195660790297 41.3445063934710717 11.2637549159493719
 28.7544049816957070 42.7821488523419191 10.7773657710379478
 30.3225999736550555 43.3436884553774107 11.0818054765935798
 30.4893481142261038 44.7934196754636105 10.6454822642697735
 31.8334608841146611 45.4613046736925099 11.1380137308768674
 31.8933134129509135 46.9534505948239342 10.6623644857164059
 33.2127657880044893 47.6453072074347261 11.1540474175517961
 33.2599134609999609 49.1340285460733810 10.6562221523040837
  3.9235059978019038  2.0913856768684242 10.6667671911400053
  5.2371417258234976  2.7954447537967559 11.1627921294010779
  5.2918507979193832  4.2791728556109980 10.6497677010177156
  6.6029799862588581  4.9804357612490113 11.1524580500280130
  6.6580343260116992  6.4624076758030444 10.6347844164606986
  7.9745507405279694  7.1574277428061146 11.1414229490990966
  8.0441608139594223  8.6386910326599562 10.6228958165274836
  9.4208182800481861  9.2992209541772244 11.1166456396976923
  9.5226654989533852 10.7459057512898042 10.5368645082273105
 11.2126314807899110 11.2859979698039510 10.5244229026644582
 11.3078439681583447 12.7614260833418829 10.9584005125120374
 12.6990038426572927 13.3821088663547840 10.4027057796543883
 12.7731753863322428 14.8587710998528202 10.8532939243257243
 14.0938499937546347 15.5084168741038688 10.3009064449547090
 14.1398110915653366 16.9821102906806800 10.8076604999454862
 15.4369672733767711 17.6635349307576135 10.2896190904257363
 15.4615398371626025 19.1238101623314769 10.8500524254735033
 16.7657992414546229 19.8117762301170899 10.3969722508706450
 16.7724156655489658 21.2539047576201945 10.9898679778522617
 18.1221975266745190 21.9317876223831654 10.6644650969391304
 18.1150049322709030 23.2877595467798315 11.3525346000191902
 19.6015530172051413 23.8090365599236726 11.4582149481064910
 19.6193354939628364 25.2309429548717468 10.8285718812402578
 20.9932017004341205 25.8819065463550011 11.2040783269930522
 21.0365993440401411 27.3693658576557617 10.6499161171024479
 22.4382297209316022 28.0612497942359234 11.1181624052640924
 22.7136825706865650 29.6929942409493073 10.7521225577237658
 23.9800377092563046 30.2967952842826556 11.3545662947011472
 24.1987266318108922 31.8657665221063446 10.8693023611969490
 25.4538785194568007 32.5510278969061133 11.4151164047121316
 25.5810108247818029 34.0882743542552618 10.9516151257883383
 26.8561302328946852 34.7762382305256210 11.4990566379786134
 26.9804415827364750 36.2803344931234051 10.9617688543165706
 28.2896691845656463 36.9805717048975069 11.4403045338059499
 28.4036180890152252 38.4519369400482773 10.8519582799117611
 29.7959454556024887 39.1292601057554705 11.1999672796590222
 29.8901971990491404 40.5825376784928267 10.6142587958413106
 31.4246801130323945 41.1190787292897681 10.9682367936602816
 31.6175985769989794 42.5356053358748269 10.4896228874149315
 32.9603862943019337 43.2033560918533368 11.0596108607729278
 33.0764468450724891 44.6825830113949038 10.5954643704886173
  7.8618053894533908  4.1881435822436535 10.6561266206679353
  9.2313698004421259  6.3600941869878955 10.6461263404056439
 10.5600684135032896  7.0216105334625389 11.1626208903572639
 10.6526922259552208  8.5027581110454804 10.6798781616227192
 12.0804409072978594  9.0457169676525506 11.3496256113905361
 12.3514067057193255 10.5867466934300190 11.2626922978659909
 13.8532402096729754 11.0707503710667599 10.5943704878502931
 13.9656505478027153 12.5931518382283354 10.9023850497653161
 15.2898448597150587 13.1764281844074294 10.2553296292122518
 15.3885094098376118 14.6666543496515374 10.7501943144023411
 16.6448405288241332 15.3351247683538574 10.1464371011574190
 16.7176063582492240 16.7868327195578786 10.7251373667947423
 17.9784665841011169 17.4832253921512901 10.1930756420118929
 18.0246952734836512 18.8811131980498637 10.8590134965969902
 19.3175896109518170 19.5883833746297213 10.4587766275204217
 19.3241274941060155 20.8872452316401045 11.2920659739313312
 20.7993186105442298 21.4065519020285038 11.3883904434751564
 20.8023997989928127 22.8325623314468444 10.8245732144375477
 22.1390794689776271 23.5052751556188930 11.2450271836109206
 22.1822453307391001 24.9807344194151888 10.7080933546041397
 23.4959186689143884 25.6674388496154293 11.1975371631969622
 23.5705786265600388 27.1565747724472821 10.6624273455226675
 24.8968929911052790 27.8437765270922348 11.2300684356474942
 25.0306419996712251 29.3706496160952284 10.7763154646908941
 26.3769446564822054 30.0816202059430431 11.2582450322909811
 26.6413456446177399 31.7519873154958034 10.9027869955810459
 27.8901598268017814 32.3496924055367430 11.5281210535536687
 28.0714958613253422 33.9658577471012961 11.0607162771530092
 29.3397309860529099 34.5976420818873507 11.5754529643857733
 29.4963965343526873 36.1642070756480010 10.9850708608453793
 30.8039458338300953 36.8066540000192504 11.3943657300884578
 31.0170592910933181 38.2988456672269848 10.6964170954296076
 32.3881149854230088 38.8775880240412732 11.2035547741682677
 32.7375614865512148 40.2378935274477598 10.5140061055153993
 13.3165304660710415  8.3204714447521830 10.7454925296433839
 14.7529108276669749  8.7274226930180561 11.4581290971759593
 14.9322595498851687 10.2783634621268760 11.4270934160423145
 16.4523163786076090 10.7144218218230751 11.2114870602343810
 16.5418563431843531 12.0006826129709587 10.3629079796080479
 17.8053220644954600 12.7196729368982417 10.8700108647568214
 17.9114729356827489 14.1185061896652382 10.1979967931286168
 19.1403225140392763 14.8096687555437665 10.8044669059070717
 19.2560589976523673 16.2536850536970618 10.2164997671305624
 20.4825505612177992 16.9168608316263978 10.8752766330981956
 20.6035867598757463 18.3919686518242926 10.3865529367176830
 21.8820599710373820 18.9961172167665566 11.0563948331317246
 21.9814607169298029 20.4885215714324289 10.6878853368578337
 23.3166403712533885 21.1544831822971275 11.1853775919008100
 23.3635116152244784 22.6561701248905578 10.7110918052933570
 24.6804285749284702 23.3485947330502874 11.2058051203061257
 24.7300793376948036 24.8416364861364904 10.7012930289586450
 26.0420052261338952 25.5332171425806074 11.2107347593500180
 26.1067176849628275 27.0281191723720688 10.7157672126006442
 27.4161440396660119 27.7131979550961454 11.2390260633206136
 27.5114253985454766 29.2175727203072988 10.7593607638448052
 28.8285736892462552 29.8769835995233919 11.3442043636006833
 28.9465024531440598 31.4018148107060497 10.9570937944157194
 30.2796007219130381 32.0628994217512542 11.4365483945674615
 30.3602107985440384 33.5965076238041291 11.0001726000242925
 31.7129019964166403 34.2765331733906677 11.3736031236378992
 31.8039294399282291 35.7990145909224324 10.8597813088566326
 33.2348543947316131 36.4317937008428316 11.2987969162738455
 17.6823973008720756  9.6788525243966639 10.6648699754091822
 19.0166032460009014 10.3669818967032885 11.1429238005116957
 19.0886122715332398 11.7916201759205173 10.5283174378392186
 20.3766243497652333 12.4879959036203179 11.0503144961929713
 20.4422557155692566 13.9277380982743537 10.4556447072462930
 21.7279516204162952 14.6128316595369601 11.0133097356347083
 21.7969030296678419 16.0729831620945838 10.4797847848176851
 23.0998530556355526 16.7378654683144497 11.0523826595738175
 23.1741258890493320 18.2090528457760854 10.5727978616664888
 24.4882564735430144 18.8864924465247093 11.1218734941113926
 24.5618156790441304 20.3722974751560209 10.6487822765443347
 25.8741597448114788 21.0639301620115873 11.1696003736231280
 25.9279671048184674 22.5555675791315799 10.6845771857960301
 27.2393522312660714 23.2491543938456573 11.1932463731740643
 27.2913165544575378 24.7395458861100934 10.7003460331262890
 28.6049132499866587 25.4303786647551959 11.2134128688017221
 28.6617964039889621 26.9210814878026667 10.7295303620774565
 29.9858069389638118 27.6035435615046971 11.2419199528362945
 30.0493830448924761 29.0992112084750687 10.7787466744602582
 31.3869262585019335 29.7791117074010891 11.2636072760895445
 31.4501824449779441 31.2770479045750491 10.8028293580422545
 32.7993428910719231 31.9649735964236115 11.2295866199089147
 32.8492051817825015 33.4563669268838808 10.7303219206389588
 21.6660267392783901 11.6427047507697576 10.6516758272344987
 22.9688195361162997 12.3431517154781218 11.1588608065119654
 23.0266200339232299 13.7920452863684861 10.5928653315603611
 24.3315218960791242 14.4806971349373530 11.1196579073058999
 24.3898595092460546 15.9439816789513529 10.5946772842876431
 25.6983877895662580 16.6319801196788859 11.1274000504036117
 25.7595396669431160 18.1073846595824719 10.6280040051202107
 27.0699889960967965 18.8004721334040354 11.1520681547162983
 27.1324858232532407 20.2844002637779006 10.6589788150559173
 28.4449786748380617 20.9784372518583169 11.1728114944928958
 28.4968682958098434 22.4667611311819329 10.6796277540091058
 29.8084569233406462 23.1636634358623361 11.1876691857843298
 29.8609753458182965 24.6496813042161449 10.6944602256821248
 31.1798285020263251 25.3426749302605856 11.1962950087752020
 31.2327049250556037 26.8278585738960800 10.7056521309929469
 32.5612648189748271 27.5211793200992183 11.1931212432916762
 32.6144876193221265 29.0054848511530849 10.6997079510161317
 25.6123289125691116 13.6798177138277612 10.6562914895699432
 26.9222164813158003 14.3735988256821603 11.1618788504633457
 26.9726930716468800 15.8457729320865255 10.6434007249895259
 28.2814837025840333 16.5400446900336995 11.1584363330309220
 28.3408066706054278 18.0211052020957645 10.6583073502064298
 29.6472122576694908 18.7161881017974778 11.1830093910090387
 29.7098007101147985 20.1951241915719528 10.6730714418227297
 31.0138051016481811 20.8971220907860733 11.1913842181134768
 31.0669525323835849 22.3779307334977595 10.6797158021270544
 32.3812310054333850 23.0811281839286018 11.1767241000970685
 32.4328916799637526 24.5637519384343648 10.6740679480539686
 29.5464000585331483 15.7502872308098389 10.6699968198450517
 30.8489429621272571 16.4415852107673466 11.1926738651615096
 30.8727769228658850 17.9038087875505880 10.6735525031555927
 32.2766043307491586 18.5965228284732369 10.6920330559600565
 32.2827260567809589 20.1605036432953035 10.6772536975794843
  0.3310942226361294 11.8582920105940577  8.5903882470529815
  0.3786288451391316 13.3386834095342639  9.0936641009077039
 21.7461975000696341 11.4922724140468713  9.1014065154708259
 23.0540849711485656 12.1831586942246712  8.5942223470013914
  1.2361151422483876 36.5018738539691512  9.0620277846514021
  1.0768281787866405 31.9930494005325343  8.5812575329522502
  1.1318669060537001 33.4797657342448147  9.0809961566327679
  2.4417138690069620 34.1707920973877677  8.5626726376209561
  2.5378000457066712 35.6348745437387606  9.0767998052047414
  3.8188740562038004 36.3475705032523990  8.5586403577820160
  3.8940372562765293 37.8072996951451046  9.0808745686947905
  5.1720575216371358 38.5361400861420478  8.5737005127939288
  0.9451862334114216 27.5464610365378419  8.5482613576282862
  0.9825237243860339 29.0242462255625000  9.0694911859333232
  2.2895047537350210 29.7260901311730237  8.5608139630180879
  2.3412332728841654 31.2062287018877349  9.0744325945282078
  3.6510795927723709 31.9063924501332750  8.5663811236934286
  3.7005825046848893 33.3892067027293891  9.0743326861558398
  5.0171544391929537 34.0880926021295210  8.5773130684416579
  5.0710759847053470 35.5677293881790391  9.0803763180048005
  6.3854729715896887 36.2706849382844112  8.5930811533018048
  6.4274430123578963 37.7529994062878984  9.0964034767464970
  7.7474927779008826 38.4475643942386043  8.6047610982526344
  7.7897967678817226 39.9307102584554627  9.1043091770833104
  9.1030078505600525 40.6280601979859384  8.6016083723251082
  0.9920960227058713 23.0730815956626323  8.5499801506711020
  0.9070441075033252 24.5626123395442697  9.0459680984547308
  2.2095885887240141 25.2701939558036344  8.5565184841248172
  2.2122590735719547 26.7551499541385738  9.0527647793619757
  3.5178766121203640 27.4585616662752727  8.5433157327196430
  3.5556680027478555 28.9381780178090651  9.0537053289334253
  4.8615959937732596 29.6433933606223903  8.5406293209252038
  4.9139216658492515 31.1213797431666102  9.0595811995656046
  6.2245744422092129 31.8297531143844665  8.5577360256059389
  6.2767010607358946 33.3042610269596366  9.0799608213928593
  7.5939485021855475 34.0113179243780195  8.5885155350418358
  7.6429505153469659 35.4869925426490838  9.1055945989588754
  8.9628304181185214 36.1865089491180498  8.6174943559950368
  9.0049013647076634 37.6653144742949735  9.1229935203997012
 10.3216240129544872 38.3622170982759698  8.6287351352537627
 10.3639049279829702 39.8474098224861706  9.1192767401910562
 11.6749382880613304 40.5527129046527790  8.6126292118537169
 11.7138760162702766 42.0406051278781305  9.1079220011423079
 13.0038912040227732 42.7747030014470440  8.5914202225865086
  1.5078877536709774 18.5065832009062419  8.3908190214365952
  1.3253762100759381 20.0242669831008229  8.6998506538103033
  2.5142139715195597 20.8876723044260331  8.4456422602073165
  2.2510479309490616 22.2796921749020385  9.1041348694352404
  3.6069375348939134 23.0573995595370640  8.6358826781185183
  3.4873644336693981 24.5018209020998192  9.0916200609200910
  4.7973700413075147 25.2196184304159026  8.5239724360382390
  4.7948924222071856 26.6787164153424783  9.0382747306377347
  6.0937190358754112 27.3836784152290882  8.5150077264416097
  6.1307607185877586 28.8593910183851676  9.0245029943431003
  7.4355472080306138 29.5779180866291718  8.5121041861211673
  7.4869237065631005 31.0455027358833284  9.0483705311127416
  8.8032610461914498 31.7617512499675563  8.5608915376366497
  8.8523878004521848 33.2278024607403211  9.0951237929763487
 10.1780183070400430 33.9363238035013879  8.6209279503940000
 10.2202249106836121 35.4058278922643623  9.1401655383155962
 11.5479566328851302 36.1081727015068381  8.6654881449727839
 11.5802669650956478 37.5868331360941781  9.1596889475308032
 12.8959914689003607 38.2929216775148831  8.6532967997570633
 12.9433631121160158 39.7845401303259294  9.1311516450012622
 14.2593014015342430 40.5589992256691261  8.6373944183028275
 14.2850517080869182 42.0256984114161867  9.0741593792904052
 15.5318821055468153 42.9081274499639278  8.4044067077452738
 15.6191007396775259 44.3386149124902289  9.0085378905668012
 16.7578440746568162 45.3040476171998066  8.2958984627510599
  1.6398318937123602 14.0298615543695142  8.5067416364768462
  1.6915474239551782 15.5228732296784386  8.9948168503078598
  2.8826219772378403 16.2569407944179609  8.3465269355778293
  2.8938720940666935 17.7828475529864427  8.8440152157232070
  3.9607745877562950 18.7111111057705948  8.3016061954061229
  3.8426837834354322 20.2187494476812155  8.9719182205841435
  5.1185735442223521 20.9373526891601074  8.4593596730734077
  5.1150556871871240 22.3761874153907740  9.0019144183742732
  6.3223968687615697 23.0907167045089174  8.3994655383779300
  6.1394199711673627 24.4792536669875780  8.9777174950237821
  7.4803025869296809 25.2003895844943102  8.4957809190062097
  7.3956437506224324 26.6239269274427528  8.9946650349196045
  8.6774690530897818 27.3496111175156180  8.4098134493346670
  8.7125652012732733 28.7967035084542253  8.9752697182045384
 10.0227718980373712 29.5278923331286229  8.4904004033234077
 10.0650744261777731 30.9782782351593617  9.0542975957946936
 11.3938764292489623 31.7009663785441838  8.5962585104915998
 11.4348589969920482 33.1578229075318589  9.1435044588513641
 12.7760126193455559 33.8784001953037546  8.6989572754503701
 12.8061858266445849 35.3418706984023814  9.2115565227601959
 14.1580326498669145 36.0639695001839442  8.7587281445460867
 14.1701642611157723 37.5474963111489899  9.1783541751225570
 15.4538171938581304 38.4465957471640820  8.5442703347787248
 15.5169971974539873 39.8368673770399511  9.2171714715184887
 16.9076643044393435 40.9385653148556869  9.2296071144378988
 16.9621941968924759 42.2737756777125426  8.4913368706964185
 18.2013987541971893 43.2505775975457212  9.1596555772426846
 18.1452970283216821 44.5881171963429992  8.3269324490048557
 19.3548619045045847 45.6067808725931627  8.5425384494497774
 19.1811271368040011 47.2053177170888461  9.0891564420115163
 20.4963064966808517 47.9291488235839083  8.6111039146215891
  0.2303836936316012  7.4170145994424317  8.5945495730715606
  0.2795895298077649  8.8984454709313905  9.0989134435087777
  1.5747225859123521  9.5867278158099651  8.5633909371514729
  1.6221143609812150 11.0717067596716880  9.0520285956607740
  2.9008552730775725 11.7568469409068950  8.4864262340521233
  2.9393738993688934 13.2564371223726152  8.9397942968848128
  4.1627727879916483 13.9567739386926757  8.3038449990067011
  4.1863849723743076 15.4932178301095327  8.7300288710409788
  5.2759912263183875 16.4187169235056309  8.1515639774202544
  5.2249914792264045 17.9947352571459405  8.7278942542103550
  6.4922902782679701 18.7248500412046113  8.2810860668391193
  6.4680718225872615 20.1999366341901982  8.8612809782412665
  7.7394416094020411 20.9250778958766226  8.3570564199430688
  7.7467554417357123 22.3973874159628465  8.8847231110002802
  9.0154711578676121 23.0571937226183650  8.3389037826129542
  9.0143196927803864 24.4884675925617330  8.8512317748650666
 10.2068198250115127 25.1918342558711572  8.2258918071462741
 10.0090026201471769 26.5972532387918648  8.7969176571057091
 11.3011121893495172 27.3352438581203145  8.3174556841977676
 11.3014944359853740 28.7451474542360010  8.9511721630119627
 12.6248415560656646 29.4815047487504671  8.5244071484572466
 12.6512818014234671 30.9208452087055363  9.1072105993760459
 13.9931151374111042 31.6677556219758181  8.6864541062968197
 14.0256728375460540 33.1170867247622525  9.2535090736683117
 15.3885350467270872 33.8955951019891302  8.8768995920265787
 15.3727958327140772 35.3512833581399661  9.4170724073699308
 16.7564432876901961 36.4833043417917011  9.3978011693846710
 16.8588426359662371 37.8171010759382469  8.6265953590213069
 18.0978210149397327 38.7567800849294031  9.3165599305449192
 18.1855168473719715 40.1948969370799674  8.7956268362124383
 19.4764675765934925 41.0036150174129332  9.3513179949813754
 19.5278348249658649 42.4949935024852863  8.8516387954135478
 20.7503933269738212 43.2689808815759704  9.4986928757030267
 20.4725247100238050 44.9638855167428275  9.3911165367681164
 21.7738766328213735 45.6117875526286340  8.8840144661070060
 21.7190611140285803 47.1945412704360976  9.2257107707557378
 23.0153274583497200 47.8754292339583003  8.7037155104687365
  0.0957073430171164  2.9827426475596366  8.5631388897631364
  0.1446119521450696  4.4559915923138247  9.0865661993217213
  1.4537705437527095  5.1489790006450313  8.5843778148583247
  1.5021613370264968  6.6308597494116999  9.0870542380249528
  2.8065604557840165  7.3218718902173121  8.5658285691383256
  2.8535417564584447  8.8069217511797913  9.0541195850592739
  4.1519343901189192  9.4939797456069126  8.5184214075251159
  4.1889054254290592 10.9908690502728525  8.9765018670164221
  5.4616055868740716 11.6810433722410441  8.4108125571307433
  5.4469417425676987 13.2109342443705469  8.7906271699609650
  6.5674248248922051 14.0815560868834488  8.2176838349811803
  6.4963648952516770 15.7072235965503957  8.6757259329078202
  7.7661100048394012 16.4328948444749514  8.2395253105906114
  7.7439139718739121 17.9420703890093769  8.7729705774916997
  9.0303761836121570 18.6598210765785453  8.2941250878096788
  9.0447545299670793 20.1385395397620464  8.8139300499075315
 10.3389876327529588 20.8355358627284133  8.3071892765954463
 10.3624420743827983 22.3055530566978000  8.8024009016379381
 11.6445356015946206 22.9804269871822875  8.2549542732451417
 11.6495265837557103 24.4411829833812213  8.6932920222092580
 12.8811463101253576 25.1416679253274395  8.1785497068628477
 12.6191224044434112 26.5470136003967667  8.7538274540094978
 13.9378808603805524 27.2907067801702787  8.3803902836943465
 13.8906639380626000 28.6912900585288355  9.0236679550746217
 15.2122182440707263 29.4613571500340896  8.6261094080666005
 15.2370594238889669 30.8953532182250470  9.2170078454688902
 16.5841546559853334 31.7261205631662833  8.8595579467641574
 16.5716799922596785 33.1364098947508410  9.5030514091049838
 17.9346207548609407 34.2653532896798154  9.5506695795116983
 17.9796134723142877 35.6913459945521154  8.9426457727980804
 19.2997226161288857 36.5201143546860223  9.4113118883495002
 19.3820589216242247 37.9990061837711579  8.8854112382805663
 20.6773980661964032 38.7488920871605202  9.4095830431191949
 20.7436127319296020 40.2417930441694125  8.9007273429226377
 22.0193024078179924 40.9758509196028484  9.4531124238082782
 22.0424555381454716 42.5199283506055821  9.0038259246383223
 23.2978931680275956 43.1900764518804934  9.6075827014900774
 22.9942483343961221 44.9199092452441491  9.5560270076757732
 24.2531976340718742 45.5545936157258211  8.9495580517823825
 24.2470637717134849 47.1271048760948261  9.2983842850646852
 25.5326726078323354 47.8123609272016026  8.7407198854393382
 25.5754748532059288 49.3480674038510116  9.1611668637676935
 26.8747460976308723 50.0472811783084026  8.6343725700799006
 -0.0024979785453291  0.0000516731577274  8.4944682891300314
  1.2538792723545631  0.6687527237385029  9.0627013907862555
  1.3539574825810530  2.2292767268153026  9.0804655258242235
  2.6708315965693257  2.8790468326734309  8.5683374235022054
  2.7177618881044991  4.3587019494463473  9.0821712107048658
  4.0285534409113382  5.0574818053862041  8.5772792979175279
  4.0753948709039278  6.5424225729918586  9.0709111189742995
  5.3840244259160048  7.2348124010577486  8.5554691681651835
  5.4261242097364066  8.7256736448093086  9.0362281857934246
  6.7248718063738968  9.4288669805326322  8.5286439355280610
  6.7296663821960658 10.9372223863648621  9.0021638701634021
  7.9218476121236563 11.7194862378528288  8.5028436478319769
  7.7711778852370594 13.4036348751920151  8.8492604768151431
  9.0110944453421933 14.1178785981016084  8.3354074982638089
  8.9887190488476154 15.6620485424945812  8.7924110106637183
 10.2729665426696997 16.3780338423457295  8.2976180116425340
 10.2937138545630038 17.8780080296642936  8.7917831319013349
 11.5898880431585098 18.5905300484799874  8.2907097254561766
 11.6270184717747256 20.0684610666240388  8.7987811528136923
 12.9352688682672614 20.7755551948608925  8.3033792346628346
 12.9624152244607345 22.2449298719956410  8.7922395588677347
 14.2737166023405564 22.9412733361617178  8.3136995195726389
 14.2689229115885983 24.3981957324509615  8.7689295231536253
 15.5313161611302011 25.1253699275543028  8.3596294836826814
 15.2524631018362502 26.5173290228590588  8.8942099728767321
 16.5756253607591972 27.3523089437457259  8.4551876555258190
 16.4996019033305572 28.6914915285741188  9.1139792449824437
 17.7985433390634569 29.6323038260438949  8.5554595922200694
 17.7960545994469150 30.9326469975592566  9.3836978332366989
 19.1329733492518343 32.0230578334925653  9.4842316855420723
 19.1449976983093748 33.5049983284074244  8.9698537290969504
 20.4867117017622675 34.2757963390749936  9.4247360490970085
 20.5510202567889699 35.7546767037352637  8.9133068849036565
 21.8691949538322135 36.4811812969821290  9.4147406993580844
 21.9301488689371844 37.9696077234876768  8.9151001229493332
 23.2299173424111309 38.6796519284811140  9.4271734514833891
 23.2682526486251327 40.1922666955372136  8.9463557193579035
 24.5572080176225747 40.8890813110157865  9.4643952828808917
 24.5435395782083852 42.4410033520949597  9.0288795361795202
 25.8246811571602457 43.0993408894440435  9.5609408091466594
 25.5164209740523837 44.8454776880366808  9.5375220599787731
 26.7508227669407290 45.4938096682373754  8.8787452654217152
 26.7832025513122751 47.0554114854385261  9.2742414955330101
 28.0616538375756051 47.7662597486107359  8.7016421521815825
 28.1219588668371188 49.2797749411415111  9.1593498025022093
 29.4227087454740186 49.9823632265764246  8.6266224504312863
 29.4806317988851667 51.4785648628529557  9.1106211786593629
 30.7867351425266840 52.1778720561746212  8.5955783538872588
  3.9242813904256781  2.0899188599071294  9.0863775316886120
  5.2412108611581250  2.7877901814297412  8.5903409468370313
  5.2896153439241438  4.2739053045152469  9.0878915702748007
  6.6011356499223011  4.9696759126384915  8.5816755105558240
  6.6466543412885137  6.4582421912652723  9.0750059182149556
  7.9505501019144385  7.1625453603545690  8.5708300540166569
  7.9833169870550593  8.6587746778534154  9.0598654563565617
  9.2482012439601178  9.3858487070212728  8.5474384019855254
  9.2158130518997456 10.9206003157515497  8.9932114113889785
 10.3281351262711656 11.7682818894310817  8.4116491319870104
 10.2160012952597370 13.3509537806851775  8.8857939128118506
 11.4933865990548174 14.0779221200537066  8.3526366865687329
 11.5227047514113519 15.6048116396455274  8.8030681331994991
 12.8061102543508323 16.3321063242261921  8.2765865168703705
 12.8550267294067755 17.8188630024104739  8.7791169031904595
 14.1566306156916060 18.5557211550611036  8.2778666728068799
 14.2085084720065868 20.0197249939080031  8.8107553129779994
 15.5353953421028503 20.7664331461725737  8.3587529958508142
 15.5586473936759049 22.2154259369553273  8.9020454509678473
 16.8972647209740181 22.9935278901208768  8.5540325388686824
 16.8888299096010250 24.4702272413797708  9.0575776512336805
 18.1337526995820291 25.2856398695500637  8.5504347077373382
 17.9757959632267408 26.7511384500429337  8.7921472469123536
 19.3569692838095477 27.5337705857302879  8.3384708890045136
 19.2865818424225601 29.0942212955001409  8.3512770449471532
 20.4185086435425127 29.8209884525166693  9.1761716160575055
 20.4147917807276436 31.3435574383884514  8.8505562238036060
 21.7284608980520275 32.0551908357770614  9.3479144613926799
 21.7588341008067907 33.5337707408948873  8.8862630176828628
 23.0794430539011621 34.2296562447656640  9.3984888000198747
 23.1305409300124509 35.7090438609398149  8.9044965646818088
 24.4449049465200368 36.4017269529494030  9.4071951216834897
 24.4803825277152249 37.8896920498152383  8.9083275937391129
 25.7846249586142093 38.5821375960165298  9.3963975684241472
 25.7830931254110602 40.0952245463713624  8.9039589771645655
 27.0814392664728452 40.7942875449109152  9.3570373203720560
 27.0108532592666215 42.3582492106065018  8.8949992206742028
 28.3188866655780203 43.0371128025319223  9.2952345795401623
 28.0428108426185254 44.7717558640835023  9.3674639697108741
 29.2571980229493214 45.4961513997265570  8.6976205140356715
 29.3243126628531670 47.0075736825812811  9.1812214623566586
 30.6194211924669411 47.7207006780821530  8.6321416299544129
 30.6815526212995913 49.2104347680518472  9.1260127244937408
 31.9875975346577590 49.9117800182889368  8.6019417369822140
 32.0492546716321627 51.4012727010840393  9.0957015921963915
 33.3547007977722458 52.0981479972426058  8.5709903320716236
 33.3637213795019960 53.5684844087053520  9.0804445637096993
  7.8608262038741650  4.1899711039528613  9.0969853125402143
  9.1668507368406082  4.8944849983448204  8.5925496936793824
  9.2100533238333355  6.3858214743740804  9.0922909496675466
 10.5015456341133593  7.1160041734902260  8.6005593763430408
 10.5232690464611487  8.6124454232228391  9.1252754048763443
 11.7150985594512029  9.4335996502454496  8.6680361968328778
 11.5499290890755475 11.0827310978135554  9.0200417401873949
 12.7936475789339159 11.7992233030136013  8.4698405775429784
 12.7579179507157008 13.3405626228854146  8.8577336540650684
 14.0185120974288768 14.0935566506684129  8.2638905212560267
 14.0730258847833873 15.5735779867450965  8.7438192060335176
 15.3594074907358991 16.3435253390814239  8.1886063976488934
 15.4234758647325627 17.7927887672213636  8.7371959437471318
 16.7365797966918137 18.5878488854636572  8.2490966804167751
 16.7894810666098451 20.0096776263831018  8.8607263666548182
 18.1247301638647578 20.8480641866487808  8.4902514577741659
 18.1561967865608729 22.2614159884336082  9.1397426504972188
 19.4572160156327350 23.2360227880034742  8.7857601911508745
 19.4578057413468493 24.8172094570952595  9.2399838388254132
 20.7730870321659253 25.5110740401939431  8.6841008292499478
 20.7588940894715535 27.0370690185248108  9.0580776840039956
 22.0393401680520711 27.6720592369609655  8.4416867660304362
 21.8807727459744683 29.2301815695235376  8.5137274808292922
 23.0655636168325131 29.8597845626812237  9.2458934395034742
 23.0709470832497487 31.3371734156293549  8.7994671101461677
 24.3584636328054138 31.9871217836163986  9.3161842152171577
 24.3729399171620216 33.4788140413046591  8.8780564893802847
 25.6923891203625026 34.1501282146153358  9.4006845471183507
 25.7273488675938395 35.6190298415897928  8.9010412262017802
 27.0388128492226443 36.3026378149834059  9.4051333400696659
 27.0391562145650433 37.7781273298075249  8.8678654851154697
 28.3391435950856696 38.4842845109523140  9.3149605460962732
 28.2822477742281428 39.9956437904826316  8.7641376836004543
 29.5976071750337830 40.7381175555237149  9.0895377315790160
 29.4007237103238808 42.3182906777285908  8.4619406723846549
 30.6543744126132935 43.2532917932876231  8.3656140495488760
 30.5514802914449284 44.7464930423523910  9.0661235502108397
 31.8487981617824083 45.4834935063478198  8.5686272998476838
 31.8938171210912245 46.9532715501331239  9.1052254906007501
 33.1997109168829567 47.6570014335230141  8.5844010748973822
 33.2542676765818115 49.1362153708423222  9.0950235732559293
 11.7627410655177815  6.3411181404130366  9.1070727221747809
 13.0087097496182462  7.1568539102253652  8.6135027578846426
 13.0650663102334903  8.6508254140401988  9.1496314005135915
 14.1391831690275485  9.5664954358665106  8.4794755919211102
 14.0548833593685565 11.0575755326732992  8.9874822556398239
 15.2981606123959821 11.9040522626045497  8.3006312180177630
 15.2876118891627435 13.3630246482963120  8.7089321677473990
 16.6185721813272949 14.1817406504643042  8.1081903049237294
 16.6303117894045371 15.6033772350164526  8.6068936445515796
 17.9883663578707136 16.4461235441356131  8.0928938873814218
 17.9941851256356529 17.8370754200385839  8.6760065004610247
 19.3614006889803107 18.7361695821760215  8.2724617564905554
 19.3487877776701467 20.0920750513225173  8.9766435567584644
 20.6893564030324306 21.0807269818635845  8.6722005813787550
 20.7406572140880456 22.6063073736438334  9.2643763280240616
 22.0437042896985069 23.3486223853548154  8.6943838371512427
 22.0987843063740286 24.8448244067646549  9.1756060962582122
 23.4111390661699730 25.5510240072305663  8.6380478091537967
 23.4250066463313651 27.0411960059910648  9.1089434702296366
 24.7063194067231535 27.7529960526803769  8.6617935758530002
 24.7051528411682533 29.2078330819464540  9.2344721783466728
 25.9396868899161674 29.8460794287361502  8.5538491224587165
 25.7861519041448659 31.3792044017747962  8.6281352526396873
 26.9942384486728812 31.9620748118612816  9.3937898513609372
 27.0663189367311148 33.4162797759107235  8.9312260572083151
 28.3241073011479898 34.0930664882888195  9.5314732954529884
 28.3733749293565651 35.5185081735914423  8.9428933565545172
 29.6648145679354478 36.2483913565912630  9.4423141598977658
 29.6078247882471643 37.6892083997163780  8.7990393437804553
 30.9341439782076009 38.4492572549324265  9.0923042209610401
 30.7191957332906327 39.9760522618407990  8.4014633439758164
 31.9808147557254330 40.9193821920471805  8.2957795533080692
 31.8398357621210124 42.4606995868454504  8.9294250413248939
 33.1435947031848954 43.1951807860517363  8.5089666776852511
 33.1214966659446688 44.6850544492726769  9.0429052240055245
 15.4812098544163828  8.9707272540837142  8.7394391560698761
 16.7042190099486163  9.8804773288741803  8.4128508441533381
 16.6376271275364402 11.4486293192123743  8.8435676037562327
 17.9642838182297169 12.1909321662075989  8.3306025611574697
 17.9725648812409524 13.7078567304827281  8.6840149144356431
 19.3209660704523820 14.4397453611126654  8.2375098467017782
 19.3257922920263923 15.9331549831487198  8.6734598539100514
 20.6687612634371654 16.6954899148764220  8.2901652929529455
 20.6666817908321114 18.1646399711322815  8.8283825245220573
 21.9756053769137516 18.9544397577327999  8.4689802224576702
 21.9857679785418512 20.4107723293965755  9.1085268894003093
 23.2896653874899471 21.1541126531860684  8.6159911550485511
 23.3363371359609104 22.6201449425206249  9.1585329039353915
 24.6451575502682445 23.3322944533513308  8.6379414028322543
 24.6966476090860674 24.8115439383642276  9.1483455301725787
 26.0022660189223167 25.5221568880090253  8.6404651784867301
 26.0374126037596518 27.0059928420058633  9.1529912340491979
 27.3519117998943280 27.7096959036571420  8.6671463407168030
 27.3623838547938156 29.1877418278787530  9.1863135949640657
 28.6524876642908453 29.9177010995279318  8.7599684679813024
 28.6645504037041192 31.3293841036089162  9.4119558091918201
 29.9162810742153908 32.0672974072885424  8.8644390127072175
 29.9848524760861892 33.4754421491033298  9.4816027979079198
 31.1979330401081363 34.1845675164717662  8.8286138349296941
 31.2824947945707734 35.6342858690226763  9.3378999699238747
 32.4082020174354426 36.2717771505468320  8.4977442334106126
 32.1268823774253036 37.8219210431729138  8.2705549715351694
 33.4415348079766233 38.6671082746346571  8.2343083485915383
 33.1710673252243069 40.1412823132148020  8.9254162860306234
 19.1973406980221846 11.5374207179554951  8.9902406210883008
 20.5197200345134654 12.2284198874146490  8.4947094112589880
 20.5385637564066670 13.7480644974516242  8.8983898652672693
 21.8642414013439499 14.4568447140365635  8.4478091004358085
 21.8820832055889127 15.9621322990126355  8.9126087234343441
 23.2007778613676869 16.6867901794384430  8.4813289723577281
 23.2171602495958069 18.1761705932846915  9.0049223453265803
 24.5300948800304255 18.8946602330871229  8.5513346643363803
 24.5616802955345044 20.3717728087965426  9.0916433284840270
 25.8717252041870296 21.0812754797022421  8.5999539835109573
 25.9166594277886944 22.5569293385436005  9.1260182553648104
 27.2247172658644487 23.2629628603573622  8.6226211446581669
 27.2731068077798042 24.7433061425663148  9.1407639731145718
 28.5793882165584812 25.4486404022308790  8.6436402645963284
 28.6237443607635278 26.9264536059130108  9.1715505776734307
 29.9196674356439658 27.6364748681691985  8.6718276208989540
 29.9556564104870482 29.1105157882019228  9.2129155626960557
 31.2377858573550640 29.8134020376601754  8.6950139209951871
 31.2736664599304603 31.2783701264140284  9.2424119455077829
 32.5450787462503399 31.9698530816843558  8.6689356202489947
 32.5935401580551840 33.4361558000417318  9.1883126314859407
 33.8491517373322637 34.1232075786797537  8.5898366062324829
 33.8720357400943541 35.6270476086490220  9.0608641929445604
 23.0889278162837748 13.7026733734588433  9.0358812347503843
 24.3996997447806692 14.4055456266330282  8.5509280803877949
 24.4340454689577875 15.9086081958744128  9.0349467753200248
 25.7439969559192967 16.6139826933148171  8.5569817570902078
 25.7802617113373636 18.1034988161107613  9.0679533755257502
 27.0886601568906080 18.8084311594626783  8.5801824639225046
 27.1338136658403215 20.2902993447242359  9.0977802591824961
 28.4439436731090431 20.9928886788433147  8.6005406075330946
 28.4895638507913311 22.4745655314985697  9.1179566617620917
 29.7944959068573851 23.1795918516636483  8.6156943370708952
 29.8441179084106203 24.6584379281902066  9.1343800840962590
 31.1454530063621675 25.3606023971425962  8.6255706810998110
 31.1936713097876179 26.8397972500218494  9.1458999021556142
 32.4874127517816049 27.5360657243686795  8.6233815805945451
 32.5338018697141393 29.0145321686500566  9.1412103264627103
 25.6376906998357121 13.6322251281566338  9.0967890532890383
 26.9439992387306724 14.3327165130486627  8.5911968570774828
 26.9898963614518692 15.8296686476480239  9.0822881581912362
 28.2967886087468266 16.5308917598830760  8.5819436847048660
 28.3483963214177166 18.0205148982173320  9.0830813119335296
 29.6526042147978579 18.7211584253091630  8.5710093839482084
 29.7084765059276599 20.1998833411313043  9.0928123611245937
 31.0079527934310093 20.9062980947365027  8.5793491082945277
 31.0582032222922599 22.3836710360386171  9.1042517038769901
 32.3629235390524670 23.0882982535272561  8.6001024137080631
 32.4128776643807086 24.5683467720272439  9.1126420506214618
 29.5500528577599155 15.7434244688512113  9.0830649082982298
 30.8502035188225641 16.4392031731259252  8.5603786831153883
 30.8738429100610823 17.9044982409399047  9.0809150338641889
 32.2753722497272832 18.5980222490385998  9.0642299617866176
 32.2791198042562257 20.1631773258888991  9.0844973484987843
  0.9101657801765776 27.5281229807678471 12.4935350263272120
  0.4625109361540382 23.1863761346284747 12.4404898214838457
  9.1588891638389107  4.8796477446711100 12.5383171441028942
 13.1604313541687574  6.6880494822896202 12.5114677508420105
  1.1001625895085423 31.9797585498398647 12.5326822585080677
  2.4543672142119530 34.1498017055465226 12.5522759719182844
  3.8129762544511721 36.3388320947172190 12.5711626855795959
  5.1680249131486775 38.5376923811599497 12.5635534006060077
  2.3025508732639195 29.7006677859666546 12.5098851924055605
  3.6677886578093131 31.8705520868572201 12.5172384621915409
  5.0181245736251823 34.0542916302313898 12.5343035034259636
  6.3723049884080067 36.2555863798949218 12.5502101431171589
  7.7265339037900649 38.4538191315396247 12.5558280188107787
  9.0828538985705620 40.6423215539528613 12.5509185654263060
  2.0311634216862511 25.3290290448927387 12.4895330125730570
  3.4897474183746917 27.4369725871850072 12.4920275949478050
  4.8761883214550465 29.6036771843349555 12.4887649994611802
  6.2262577780861781 31.7752625748421664 12.5071107060945117
  7.5642074042119765 33.9670797893471530 12.5382750757138179
  8.9106857207624408 36.1710481590495334 12.5669179195415204
 10.2734044713800685 38.3732213500227601 12.5769861021604594
 11.6446593172728647 40.5421282476843885 12.5611018823479501
 13.0286573689992213 42.6560538434643917 12.5299361073430937
  1.2517801764566090 21.0467165514462522 12.7530449628539468
  2.8673584907687109 23.1526149784769437 12.6488122335250797
  4.5969544193265897 25.1030945758379467 12.4712314335793941
  6.0648313985645874 27.3826654115294232 12.4637898297075242
  7.4514611862806337 29.4823802757910123 12.4606055599547805
  8.7678198850031599 31.6661967363252650 12.5091402788262922
 10.0928971834517860 33.8724903423140304 12.5690490558721280
 11.4329300184112306 36.0907264585238252 12.6134987460951571
 12.8339075046238396 38.2815935353534869 12.6033084164542935
 14.1840637831651453 40.4142728027657583 12.5813219992098730
 15.6153399377943440 42.3809568837131962 12.4657597769480351
 17.0418015596137984 44.1953332926578497 12.6534737684308549
 18.8756049306367295 46.3809677919745553 12.7230469497661183
  0.7732000583193660 16.1843796734672409 12.5029031012186156
  2.2492776152102212 17.9368629250083949 12.5045516059678352
  3.1307701763412772 19.9160623341256802 12.7059910362969468
  4.5687162034804363 21.7260708286498279 12.5477637715455401
  6.8599107943841098 25.1760532225969804 12.5319902970308412
  8.7135237552077882 27.1165046188497811 12.3682321120800403
  9.9774231664016622 29.3378361020756877 12.4375090051966506
 11.2816441412071953 31.5511943500626764 12.5415297686362770
 12.5968472429909024 33.7734434146811751 12.6453591348982197
 13.9326716985858887 36.0097916468372503 12.7160174118786635
 15.3996421090620927 38.0024310376087229 12.6302499215642641
 16.7961131136195938 39.9369180341847994 12.7149539266390779
 18.1396080057216160 41.9641595759395400 12.6619935984835426
 19.5309270942053033 44.0007531771999609 12.8173525121817136
 21.4121950186854590 46.1470672884913924 12.7976606481821840
 22.8679678393547299 48.2337569298975311 12.6347427138686115
  0.5173931732600257 11.8556443675739533 12.5356916297211338
  1.9616054624381805 14.0395405506016626 12.4447471097313755
  3.5478721934607447 16.1306738238177090 12.2583819123759703
  5.3385073526442319 19.3754225703862275 12.2600212226053440
  6.7994924810833011 21.7057552923814718 12.3227262102300710
  8.5028258358838595 23.7349220356940194 12.4327606449399717
 11.1264068068682995 26.9101285204626492 12.2583978578124633
 12.4459864705509382 29.2092731570805348 12.4621529611342474
 13.7780724560992400 31.4298713626993980 12.6239540082171633
 15.0808982294494989 33.6011687328205610 12.8226126133852123
 16.6162831045713517 35.5277725248775056 12.9092849638119240
 17.9963518596221590 37.5444213199614651 12.7971920037686342
 19.3354712332989003 39.6160727388580511 12.7784826477649638
 20.7364220956104255 41.6801531836551646 12.8669339158160110
 22.2207107596160185 43.8238832186043794 13.0149501946933288
 24.0798671201282879 46.0253072083980044 12.8888215333133420
 25.5017231165712310 48.0890548277741772 12.6835943254750152
 26.8529997373724534 50.1880352437957953 12.5812579375530316
  0.2836289797223911  7.4184545900799685 12.5443101266844153
  1.6721340249209948  9.6157576589566514 12.5116496071814485
  3.0822570775720677 11.8316868633147063 12.4335056931796135
  4.6084985733177355 14.0434307885013894 12.2456729486076377
  6.2724726167574048 17.2055801731849023 12.1531179738643544
  7.8124837141618766 19.3868048157901072 12.2423968270918930
  9.2434424298128253 21.5472446983417534 12.2456244348625791
 10.7139418845614305 23.9595894549371700 12.1895911642375872
 13.4596920150978789 26.7857042505825440 12.2884326755224009
 14.8912924824928741 29.1786614224126239 12.5379651300458850
 16.3007570523644887 31.2116859747937205 12.7824655734281230
 17.8894195732319901 33.0732091718006274 12.9728811378956852
 19.2835127074230108 35.2120566164503046 12.8930504137775443
 20.6021801393343722 37.3213067649830421 12.8347212221198124
 21.9660426670977600 39.4292311479718265 12.8554334503609624
 23.3992606641792165 41.5209297710396115 12.9435241037534450
 24.9476308344184297 43.6960101447648057 13.0345165810089743
 26.7734681194834288 45.8529976840683560 12.8352287025120244
 28.1317055453399334 47.9270949534488153 12.6500472511654696
 29.4507290921712546 50.0522569170174236 12.5755150522445067
 30.7870384597282545 52.1973496771511805 12.5525320655434793
  0.1060524636116902  2.9770863961432008 12.5756315811480643
  1.4797035465642325  5.1659426892625637 12.5413945054874461
  2.8463419700956702  7.3558680636052234 12.5152376329964561
  4.2174644613579222  9.5681858905074222 12.4668793949393386
  5.6346915111923543 11.8478211007115757 12.3688768584204922
  7.3685789583534795 15.1568329614429711 12.1775684167193834
  8.9475998874243388 17.1984060686382065 12.2175582475512385
 10.3541743263016794 19.3440494467477926 12.2253362477839218
 11.7053754336419047 21.5617613966138570 12.2298353988438286
 13.0298589157454217 23.8778010601871138 12.1792233874270952
 15.6643538079905174 27.0282560125547135 12.5566571426407165
 17.3664563830579297 28.8903333647637304 12.7444768034451048
 19.0957857423675250 30.6418925408005549 12.8182303972692306
 20.4956092595699353 32.8362932645806822 12.8502603169645226
 21.8284140589465707 35.0050382158616102 12.8380245145431733
 23.1842611486925350 37.1696564561702161 12.8413464966323740
 24.5976789054241998 39.3080993949703199 12.8543494553331765
 26.0891229323114722 41.4223064497609386 12.8822430053143027
 27.7076366369482088 43.5438849809341875 12.8527041389321646
 29.4023843026853697 45.6168375053296700 12.6565099333056015
 30.6971996185136717 47.7679941565432742 12.5804325131140864
 32.0196525544458623 49.9234608550470682 12.5527211920938022
 33.3657100677481537 52.0951984860671402 12.5607514108800764
 -0.0000742171195078 -0.0044001638955589 12.6350442765011106
  2.6789440200541019  2.8941967361340688 12.5580036789814073
  4.0418636034004480  5.0878587501648695 12.5282503081140231
  5.3967340268980450  7.2745664631245317 12.5036727626296855
  6.7263047239684735  9.4202531090167358 12.4775789294360351
  8.2382482704234992 11.2162734559088193 12.5426701396082230
  8.6738705521487596 13.3578722209018554 12.4319632519925545
 10.2047782114053511 15.0852076316487125 12.2376052324628866
 11.5672250102330594 17.1320919752402041 12.2145641451976967
 12.8945477375826982 19.2590267332169702 12.2221959969736496
 14.1588699665538691 21.4271552103345364 12.2592825052102405
 15.3618969330632780 23.5945511792871478 12.3069309449633071
 16.9192562098659920 25.2687812423854012 12.7845328078474676
 18.8470406304680687 26.3314815342705231 12.8615717119296082
 20.1782302672848104 28.3823064473471298 12.6871245389233245
 21.5593452749714167 30.4457229113560714 12.6730418569632572
 22.9923765233216422 32.6464317863789049 12.7743207528684088
 24.3497576316517303 34.8780362919625020 12.8251340791749158
 25.7538421274560747 37.0853063395912272 12.8290498436796199
 27.2355004814075592 39.2550719806263189 12.7722608608194115
 28.7959064210755891 41.3611561619264023 12.6373432544396049
 30.4083749341600829 43.3133114032224711 12.4577630413226998
 31.8696905538984261 45.4535090723561339 12.5151077389026160
 33.2349537667761226 47.6428857932334253 12.5322790718366637
  5.2337643812113797  2.8034501971565602 12.5420328137590662
  6.5962336235914485  4.9904331677983595 12.5309787747717767
  7.9585492007258107  7.1628589734082633 12.5198344142953726
  9.4308707447110809  9.2938392282979958 12.4956883166566772
 11.2941662898691924 12.9023463079261838 12.3252509850530263
 12.8089636734585852 14.9315638002930804 12.2271564045266459
 14.1614850469334712 16.9871386077743232 12.1840502177270977
 15.4249025924610521 19.0654507056251177 12.2243880179212070
 16.5953163579396197 21.1430213749900382 12.3462812746999475
 17.7454067461830682 23.1223093737866208 12.6555041580621737
 19.8622213479560692 23.8484232312855866 12.8020222784814273
 21.1146193304249650 25.9215358880582336 12.5759686460241848
 22.4666026788078739 28.0471818758856166 12.4981269254905971
 23.9902053244879490 30.2893559024788068 12.7271340529548187
 25.4618916094511967 32.5202642633258634 12.7937958058071892
 26.8438834083614140 34.7962868728397723 12.8775349629054379
 28.3134730285374268 37.0369478448289300 12.8169959105087621
 29.8484794384444783 39.2082098900599902 12.5752032578025599
 31.4432888561407715 41.1541336376182443 12.3471995725451862
 32.9368876272490567 43.2130815672919368 12.4357226441434747
 10.5106432492680195  6.9694603667239621 12.5366211632481548
 11.9868815395858146  8.7857948997518953 12.6879533317781821
 12.3953077151526738 10.9690712469923994 12.5662061974597083
 14.0643552620548711 12.8164242232746908 12.2553258229211384
 15.4993653765228405 14.7287542308745358 12.1172391722202448
 16.7752120940563891 16.7463459655477607 12.0954523404225789
 17.9884125192221767 18.7354524424256752 12.2210563295747985
 18.9634049001829155 20.7442470389503768 12.5976557149410642
 21.0766210351209651 21.4180681233685171 12.7261192537990393
 22.2418799556452065 23.5331580536891281 12.6168608114794196
 23.5328996725254314 25.6723727305327927 12.5735693370686992
 24.8881103568352948 27.7838786506532891 12.6051634976740008
 26.3647764657867469 30.0411748485868983 12.6375128947190660
 27.9007702733743912 32.3356804575560091 12.9010039959212683
 29.3950525969129899 34.6718695793260778 12.9449434655215896
 30.8952091775066719 36.9545543318603578 12.7571053878948319
 32.3061520587156679 39.0174585808788308 12.5806572303300399
 14.6320388748057191  8.4401580458617200 12.7980506889143992
 14.6803707320094166 10.6334754572374877 12.7272966346495426
 16.8320796095946648 10.8705809806370812 12.5140463746858952
 17.7466324285478976 12.8967261099456074 12.2310401230525958
 19.0097632272621944 14.8714066099707605 12.1710826419081606
 20.3301066971055562 16.8848557513575912 12.2418818904596360
 21.7701565670786579 18.8882228829175816 12.4278523817943096
 23.3842026412474944 21.1123550073602928 12.5600238853945463
 24.7120594989516604 23.3410155450817456 12.5832581734402140
 26.0526510560978650 25.5146911972354538 12.5886054946203689
 27.4083667990878403 27.6764263647078046 12.6171028992558032
 28.8236805429392824 29.7668673204683714 12.7174485122309981
 30.3361702791641648 31.9717064601673187 12.8093531030599728
 31.7975895197137888 34.2334214872796352 12.7484395830863928
 33.2716928084072521 36.3286638170244345 12.6816608747165827
 19.0800379425497439 10.4634309861632797 12.5165865145916175
 20.3309460804201940 12.5708777111990102 12.4257512129370316
 21.6620204478756122 14.6391352950581410 12.3904791016302820
 23.0428131977698882 16.7165443278205146 12.4305751747416675
 24.4587634558609217 18.8501750774294194 12.5000167504993165
 25.8785120213835391 21.0421927962134703 12.5476955807973969
 27.2452958236255789 23.2350460729042716 12.5716626937493636
 28.6094074117022110 25.4075754502196425 12.5918066894831853
 30.0021430922006971 27.5575334020134086 12.6198809238554883
 31.4251107317996166 29.7290927130403517 12.6415159640393426
 32.8645541414516131 31.9317432189806247 12.6063882129109430
 22.9431072405011030 12.4020595099307371 12.5360251445134381
 24.3012599062759982 14.5027541754893043 12.4979052490452265
 25.6737590517180330 16.6279621370987805 12.5059858142557854
 27.0532967188820095 18.7882515967448782 12.5308563550141923
 28.4415445729349052 20.9670913931573395 12.5519933761017999
 29.8091969591170667 23.1558088368175348 12.5666781674065273
 31.1917527219515591 25.3281542455215991 12.5749596290119339
 32.5887437372527984 27.5060015238853843 12.5715137825376058
 26.9142515543613037 14.3884827659359509 12.5405621996886403
 28.2663870640289545 16.5395284352779122 12.5387597958050012
 29.6368353709557830 18.7110383961926345 12.5605757546106496
 31.0120348412955842 20.8955295603931148 12.5691738240859614
 32.3853433808115341 23.0835190424908419 12.5572082715894933
 30.8517893558885667 16.4430217326973285 12.5728305913749665
  0.2830052715583047 11.8502176579615579  7.2125430471743508
 23.0886470933235088 12.1289677113586816  7.2170580416510992
  1.0654859595370620 31.9965247186980193  7.2020757549845822
  2.4393944500403899 34.1702087307341529  7.1848830162965642
  3.8172895257197301 36.3519841846296856  7.1784853238297224
  5.1831370716870628 38.5339779912112306  7.1960962139658102
  0.9565243506275496 27.5769464438032799  7.1708083087231653
  2.2810986899021706 29.7388911892668339  7.1823977128305758
  3.6449620252006674 31.9113855105545703  7.1873721851571437
  5.0214215578591634 34.0901705896412679  7.1968288675524752
  6.4002287398766935 36.2717477047496217  7.2127028502226809
  7.7640820836302682 38.4421548998882301  7.2258313382483532
  9.1075365449917882 40.6168811905033493  7.2230876433800910
  1.0926887391471516 23.1517758834250138  7.1780894639781190
  2.2342975723031802 25.2981429780026481  7.1804862492663490
  3.5084261985402847 27.4777300151324617  7.1654450625416066
  4.8451635327204947 29.6598388011608485  7.1622356191010015
  6.2191598255723939 31.8477466368434463  7.1790714175585535
  7.6031205160801525 34.0228700391996597  7.2097830667619833
  8.9801460116231269 36.1850946495920240  7.2388415699236592
 10.3347667032165802 38.3475277003753163  7.2503924854498738
 11.6705170425564937 40.5363980370800050  7.2342178000986275
 12.9330358206533678 42.7627510055769733  7.2174202542057300
  1.4671194977108371 18.3849797275016975  7.0095758787683895
  2.6132584950757893 21.0023353119889755  7.0669233650776437
  3.6110735638941822 23.0887979074607337  7.2559181541311677
  4.7427434265520949 25.2457280265459794  7.1488777069720548
  6.0588497213211996 27.3977263675235463  7.1369311294151112
  7.4064540493612858 29.6171329931431444  7.1341433688565763
  8.8059750786364575 31.7930229735873198  7.1824989234521341
 10.2013547583532898 33.9502539280505999  7.2424259290213451
 11.5811519021963694 36.0896773729302467  7.2871834999811638
 12.8572926043588094 38.2547720230975017  7.2764722729797002
 14.2604333843065127 40.5703419409322095  7.2583517826041195
 15.2639451849002015 42.9753940342791410  7.0660798154986235
 16.4519815724287177 45.3638891729047558  6.9559777072560545
  1.5743121265290296 13.9901739678206543  7.1301056157072882
  2.7998532121239919 16.2059365090730054  6.9715835017930337
  3.8853822484328191 18.8438337999667738  6.9358114776270687
  5.0962303162860128 20.9982390146019284  7.0809945373437664
  6.3218848985640266 23.1033049838788322  7.0268977888164477
  7.4399365764510366 25.2128408380252438  7.1165133022462088
  8.5833243879518530 27.4069493816838659  7.0365697979518709
 10.0025348439333293 29.5874782757494437  7.1124917428681025
 11.4168146403475284 31.7427259893117224  7.2183800822270570
 12.8271057186627839 33.8851970569870318  7.3205543347931386
 14.2637471645841458 35.9949950512459793  7.3851719772560225
 15.1912487690817795 38.5083802304343976  7.2113699577575545
 17.3040415520835147 42.0970332130601221  7.1878223012912086
 18.2996230173698429 44.1810111985559146  7.0267289893788218
 19.6962471517457907 45.8349499639061619  7.2399788845053648
 20.6117413234667168 47.9280256258499193  7.2374412468207794
  0.2155905629693030  7.4172364282647338  7.2158185220650619
  1.5470785106881202  9.5690657460903239  7.1850273538444789
  2.8610715558571118 11.7028439739174335  7.1087023612314155
  4.1031820560276175 13.8609353348496445  6.9314364767601075
  5.2309618576092527 16.4867048851095461  6.7811577203717635
  6.4875182757217935 18.7822307585196135  6.9037713340300169
  7.7221197082572752 20.9606842936683186  6.9797053172947034
  8.9943970554617927 23.0809979108192493  6.9602245150411406
 10.2010993965131398 25.2084528909526107  6.8530089026451551
 11.2569494039025937 27.4330499138950188  6.9446510395450449
 12.6336132155896035 29.5541637632956871  7.1476053717704193
 14.0349833741511478 31.7238277935544062  7.3093106868527098
 15.5141318698753903 33.9188648958870971  7.5083736981133784
 17.2119122077385605 37.6758321141371368  7.3220705347752615
 18.2948651852331139 40.1049644312121600  7.4287761308371421
 19.7682107391898434 42.4524310856069178  7.4986977070418019
 21.8881237576786845 45.4643462828149936  7.5229848856105690
 23.0586580526385063 47.7912981833944528  7.3282787197280301
  0.0926963031352025  2.9808136056974130  7.1829544864731547
  1.4506850386742451  5.1517505017841971  7.2038874466296017
  2.7959208368270319  7.3060191685633420  7.1871617746752348
  4.1356594206057888  9.4445414452595866  7.1405649508334488
  5.4623415701356182 11.5647258346739985  7.0380328879065281
  6.5586072663820874 14.0611886387772564  6.8447541738246942
  7.7837875663824878 16.4513235883294513  6.8609799088963461
  9.0309875543047635 18.6793006413047245  6.9159991882700815
 10.3314726970133801 20.8431038140070228  6.9288836655672750
 11.6543452090953057 22.9590789221937115  6.8764759951548022
 12.9736064244281408 25.1461979277157965  6.8090589428671047
 13.9493109826127277 27.3850422556747652  7.0055535846574903
 15.1527730484502623 29.5413521384197324  7.2511547326028474
 16.6553582120022057 31.8745749424050437  7.4956641689771955
 17.9774088536989609 35.5891927482999364  7.5764657649682041
 19.4994270870330091 37.9834829138099721  7.5164206900860790
 20.8239909867833290 40.2309107657160823  7.5268646833104826
 22.1558166093086477 42.5773249505757931  7.6367809930599675
 24.2316454332045055 45.4117940755577436  7.5829419629966788
 25.5177427038464977 47.7429668130689535  7.3635504203588784
 26.8761789192746576 50.0098619025726165  7.2561252561511331
 -0.0032619594119652  0.0015362739220072  7.1181368360167045
  2.6735644392977078  2.8795589861436808  7.1905467426800893
  4.0305763933982206  5.0501647783423298  7.1982538473480187
  5.3838181173344752  7.2092833159847967  7.1770794149531456
  6.7355055343254442  9.3858694157747955  7.1507428104157258
  7.9344361703831963 11.6713683809236262  7.1237898202473433
  9.0021748892648681 14.0823058325322812  6.9568389082965689
 10.2699871625767116 16.3698340431617702  6.9193023876252484
 11.5838798878673348 18.5978001301946669  6.9126707858374568
 12.9466683571747687 20.7778617591518824  6.9249613321448642
 14.3337856296218291 22.9295937209551539  6.9370080604198465
 15.7049755119972012 25.1186538833525113  6.9968895220685674
 16.5105541390825330 27.4403901103703092  7.0723236139304451
 17.4305901044730049 29.7894636700760529  7.2494973938811675
 19.0668955181026227 33.5369160533479018  7.6009162070030927
 20.5526014684381195 35.7615609838106110  7.5364676329406484
 21.9582665280033069 37.9731100903317511  7.5394554053155876
 23.2845091403207611 40.2074547089178367  7.5699659617498147
 24.5420499515089396 42.5114007091967139  7.6585647469179943
 26.6392498132730218 45.3851152613232074  7.5121398695894488
 28.0121459311846088 47.7308020231220240  7.3234497379372208
 29.4056349547152251 49.9641594599789372  7.2480367761785454
 30.7778820111703801 52.1656260313658109  7.2152549721156563
  5.2459635756685774  2.7805177662259997  7.2111002572550031
  6.6035581826531118  4.9557408924859709  7.2031478898536161
  7.9488619788528840  7.1381833255033094  7.1929504702318727
  9.2587120443891990  9.3174555535274823  7.1727185832008358
 10.3189468769512747 11.7519136344080284  7.0390775626847057
 11.4685681656532026 14.0387590794710793  6.9755421443411256
 12.7802876733933957 16.3266001617887824  6.8985852684872100
 14.1471465022971685 18.5786845831348373  6.8996636911413320
 15.5739877765918440 20.7979269790498265  6.9817465601254503
 16.9920933791282849 22.9931090065891972  7.1787964616199620
 18.2041559359165888 25.1396033693091354  7.1733328232560032
 19.4558954807649407 27.2273632082454640  7.0010094175655189
 19.5650610907399738 29.4175842470235374  7.0480535096365262
 20.3473147486535844 31.5517094577526542  7.4940141670810698
 21.7362619582836665 33.5990312198700707  7.5116298665885619
 23.1180267242370796 35.7327500382614431  7.5286830420590398
 24.4639699317458259 37.8889451420989545  7.5318177045094394
 25.7142161307753554 40.0973542001107575  7.5296235423579887
 26.8697048926180528 42.4093543946214027  7.5329568107213651
 29.1052328666586959 45.4634260385213054  7.3261632605213647
 30.5728223898836546 47.7164708298317279  7.2539985907669484
 31.9681379135899313 49.9047379402057203  7.2231536601645523
 33.3446311986966251 52.0924038327422778  7.1934239953322958
  9.1580984807394934  4.8810996379436267  7.2147860019215990
 10.4753717092457173  7.1083194064554105  7.2241051197874464
 11.6893581340772670  9.4089408091581284  7.2882724769620975
 12.7509148428034411 11.7367631912497181  7.0920327198708595
 13.9631547132318836 14.0507607358809938  6.8870875923544697
 15.3157925020543768 16.3499864922496947  6.8104930700170332
 16.7338021838333049 18.6378528736129638  6.8717696033952409
 18.1923528248961581 20.9188697584810193  7.1166628458705636
 19.4966909059167115 23.2319174301343949  7.4067973568100953
 20.7919435867858979 25.3791034530858326  7.3135712228175729
 22.1048689120225852 27.3942099756381694  7.1052367374080774
 21.8693674218053502 29.6019669043137377  7.2062753049993207
 23.0963921281080147 31.4650815872624534  7.4313030543057748
 24.3275668478437446 33.5822109708615244  7.5083957410343860
 25.7123989694485928 35.6177889683251934  7.5241773883390257
 26.9687382375160141 37.7295131579598149  7.4947250866640740
 28.0914474967356185 39.9104623000396828  7.4077248974132992
 29.0808766022608687 42.0985893092977790  7.1563514829576533
 30.8185531657612017 43.4770647198551643  7.0278852057249805
 31.8514935786481068 45.5630709496682726  7.1939811965553089
 33.1840855917166664 47.6727364550564587  7.2063059791260029
 12.8905456280123669  7.1944414055802097  7.2416156660947282
 13.9908866498996360  9.5813563250271496  7.1005537466631088
 15.2173131391347116 11.7560961881530019  6.9366720602984939
 16.5703285413160053 14.0875288727892176  6.7390718690431504
 17.9847213807681037 16.4224665313980367  6.7195025315700248
 19.3974300846412682 18.7983912717848121  6.9013095373253606
 20.7119690970989083 21.1688619007194738  7.2962425727237550
 22.0386736009042501 23.3236863884123125  7.3182721705174769
 23.4452593840863699 25.4865008762040368  7.2645235823184375
 24.6884038795821965 27.7423652712518596  7.2828103433388680
 26.0107970980391059 29.5801827559653283  7.2220384551841033
 25.7306023661786014 31.7475600027238585  7.3212604075747318
 27.1500242629323871 33.4577533144818631  7.5644210928100195
 28.3734951743274237 35.4258211387656559  7.5747813485743638
 29.4387192300164635 37.5196067008692467  7.4470694191790647
 30.3757615130436349 39.7615018450929085  7.0984947543733741
 32.1588530269552422 41.1138059959340865  6.9519718536237232
 33.2240558840594886 43.2649713175938331  7.1371328285146323
 16.8277369853901497  9.8848943708891497  7.0309790494352615
 18.0479896006251508 12.1209603990247086  6.9563654053964452
 19.4344199981042571 14.4033071225872273  6.8652043833657830
 20.7933449511734807 16.7353628277114588  6.9187937852109034
 22.0631982074336754 19.0493265898217494  7.0975051926785833
 23.3033951932877592 21.1885271966540287  7.2388969598186499
 24.6456703032551339 23.3297290413201281  7.2605316808703906
 26.0083876116300701 25.5218842099507874  7.2620231328293769
 27.3991805633763228 27.6897636630534798  7.2902440238836279
 28.6551599939351753 30.0368781817676300  7.3857856059072544
 29.8292774566730330 32.1549102622411525  7.4956074994801174
 31.0270401439975814 34.1611694015453793  7.4655635503972864
 32.4577089767708458 35.8560304428806589  7.1973315392915156
 31.6968960950178023 37.8788252262379643  6.9694588106893951
 33.6539886002331698 38.8865321323611397  6.8924129993862975
 20.5919088204161582 12.1658639807771074  7.1192875733336320
 21.9403811956252248 14.4328479677702965  7.0704357609451653
 23.2724228798402208 16.7063214448584993  7.1039776523078073
 24.5708786758967754 18.9246694888359812  7.1735823675187591
 25.8820844346252450 21.1010367664423590  7.2217222147126101
 27.2255102438346306 23.2741384768627775  7.2441751285672620
 28.5800654545913666 25.4646167750295760  7.2652771515477337
 29.9153571668845473 27.6700072638128951  7.2934186007861967
 31.2038559496445238 29.8474281315313554  7.3164992656516370
 32.4736142749814078 31.9682912623282505  7.2918421903410939
 33.8117141842799853 34.0152305229682028  7.2160194040721262
 24.4362320700110729 14.3841532715447524  7.1727726281016349
 25.7720224517179304 16.6162542836896385  7.1785073480867352
 27.0975470974489703 18.8205509846638925  7.2012885657625905
 28.4469416846678058 21.0051984836329098  7.2213866214261762
 29.7880043147979130 23.1974975045320591  7.2368117253087387
 31.1355152434234057 25.3744364356564809  7.2469203770089816
 32.4621634458397494 27.5450231823972445  7.2448729412767152
 26.9519087527831438 14.3178029962311921  7.2125135432051479
 28.2978055443414114 16.5294237020169525  7.2014825593784444
 29.6508847673677280 18.7269546857032623  7.1932481949584428
 31.0034157752290191 20.9193104068135263  7.2017807985032487
 32.3536918238048301 23.1007613724233387  7.2197336856739698
 30.8529755455708887 16.4407609206394554  7.1802218917253136
