6936
Lattice="75.38113017133948 -43.51824828504599 0.0023314320122684003 75.38124553359951 43.518502460640235 0.0023502390099386 0.000631876550192 7.8726944872e-06 20.084434244558413" Properties=species:S:1:pos:R:3 pbc="T T F"
C        4.43425642       0.00000495      10.12010770
C        1.47809908       0.00000026      10.62295605
C        2.95605186       0.00000731      12.67600698
C        1.47801816       0.00000452      12.17302454
F        4.43438381       0.00001021       8.74345781
F        2.95595395       0.00000206      14.05262574
C        6.65135188       1.27996091      10.12017682
C        3.69519453       1.27995621      10.62302518
C        5.17314732       1.27996326      12.67607610
C        3.69511362       1.27996047      12.17309366
F        6.65147927       1.27996616       8.74352693
F        5.17304941       1.27995802      14.05269486
C        8.86844734       2.55991686      10.12024594
C        5.91228999       2.55991217      10.62309430
C        7.39024278       2.55991922      12.67614523
C        5.91220908       2.55991643      12.17316279
F        8.86857473       2.55992212       8.74359606
F        7.39014486       2.55991397      14.05276399
C       11.08554280       3.83987282      10.12031507
C        8.12938545       3.83986812      10.62316343
C        9.60733823       3.83987517      12.67621435
C        8.12930453       3.83987238      12.17323191
F       11.08567018       3.83987807       8.74366518
F        9.60724032       3.83986993      14.05283311
C       13.30263825       5.11982877      10.12038419
C       10.34648090       5.11982408      10.62323255
C       11.82443369       5.11983113      12.67628348
C       10.34639999       5.11982834      12.17330104
F       13.30276564       5.11983403       8.74373431
F       11.82433578       5.11982588      14.05290224
C       15.51973371       6.39978472      10.12045332
C       12.56357636       6.39978003      10.62330168
C       14.04152915       6.39978708      12.67635260
C       12.56349545       6.39978429      12.17337016
F       15.51986110       6.39978998       8.74380343
F       14.04143124       6.39978184      14.05297136
C       17.73682917       7.67974068      10.12052244
C       14.78067182       7.67973599      10.62337080
C       16.25862460       7.67974304      12.67642172
C       14.78059091       7.67974025      12.17343929
F       17.73695655       7.67974594       8.74387256
F       16.25852669       7.67973779      14.05304049
C       19.95392462       8.95969663      10.12059157
C       16.99776727       8.95969194      10.62343993
C       18.47572006       8.95969899      12.67649085
C       16.99768636       8.95969620      12.17350841
F       19.95405201       8.95970189       8.74394168
F       18.47562215       8.95969375      14.05310961
C       22.17102008      10.23965259      10.12066069
C       19.21486273      10.23964790      10.62350905
C       20.69281552      10.23965495      12.67655997
C       19.21478182      10.23965216      12.17357754
F       22.17114747      10.23965784       8.74401081
F       20.69271761      10.23964970      14.05317874
C       24.38811554      11.51960854      10.12072982
C       21.43195819      11.51960385      10.62357818
C       22.90991098      11.51961090      12.67662910
C       21.43187728      11.51960811      12.17364666
F       24.38824293      11.51961380       8.74407993
F       22.90981306      11.51960566      14.05324786
C       26.60521099      12.79956450      10.12079894
C       23.64905364      12.79955980      10.62364730
C       25.12700643      12.79956686      12.67669822
C       23.64897273      12.79956407      12.17371579
F       26.60533838      12.79956975       8.74414905
F       25.12690852      12.79956161      14.05331699
C       28.82230645      14.07952045      10.12086807
C       25.86614910      14.07951576      10.62371642
C       27.34410189      14.07952281      12.67676735
C       25.86606819      14.07952002      12.17378491
F       28.82243384      14.07952571       8.74421818
F       27.34400398      14.07951757      14.05338611
C       31.03940191      15.35947641      10.12093719
C       28.08324456      15.35947171      10.62378555
C       29.56119735      15.35947877      12.67683647
C       28.08316365      15.35947598      12.17385403
F       31.03952930      15.35948166       8.74428730
F       29.56109943      15.35947352      14.05345524
C       33.25649736      16.63943236      10.12100632
C       30.30034001      16.63942767      10.62385467
C       31.77829280      16.63943472      12.67690560
C       30.30025910      16.63943193      12.17392316
F       33.25662475      16.63943762       8.74435643
F       31.77819489      16.63942947      14.05352436
C       35.47359282      17.91938832      10.12107544
C       32.51743547      17.91938362      10.62392380
C       33.99538826      17.91939068      12.67697472
C       32.51735456      17.91938789      12.17399228
F       35.47372021      17.91939357       8.74442555
F       33.99529035      17.91938543      14.05359348
C       37.69068828      19.19934427      10.12114457
C       34.73453093      19.19933958      10.62399292
C       36.21248372      19.19934663      12.67704385
C       34.73445002      19.19934384      12.17406141
F       37.69081567      19.19934953       8.74449468
F       36.21238580      19.19934138      14.05366261
C       39.90778373      20.47930023      10.12121369
C       36.95162639      20.47929553      10.62406205
C       38.42957917      20.47930259      12.67711297
C       36.95154547      20.47929980      12.17413053
F       39.90791112      20.47930548       8.74456380
F       38.42948126      20.47929734      14.05373173
C       42.12487919      21.75925618      10.12128281
C       39.16872184      21.75925149      10.62413117
C       40.64667463      21.75925854      12.67718210
C       39.16864093      21.75925575      12.17419966
F       42.12500658      21.75926144       8.74463293
F       40.64657672      21.75925329      14.05380086
C       44.34197465      23.03921214      10.12135194
C       41.38581730      23.03920744      10.62420030
C       42.86377009      23.03921450      12.67725122
C       41.38573639      23.03921170      12.17426878
F       44.34210204      23.03921739       8.74470205
F       42.86367217      23.03920925      14.05386998
C       46.55907011      24.31916809      10.12142106
C       43.60291276      24.31916340      10.62426942
C       45.08086554      24.31917045      12.67732035
C       43.60283184      24.31916766      12.17433791
F       46.55919749      24.31917335       8.74477118
F       45.08076763      24.31916520      14.05393911
C       48.77616556      25.59912405      10.12149019
C       45.82000821      25.59911935      10.62433855
C       47.29796100      25.59912640      12.67738947
C       45.81992730      25.59912361      12.17440703
F       48.77629295      25.59912930       8.74484030
F       47.29786309      25.59912116      14.05400823
C       50.99326102      26.87908000      10.12155931
C       48.03710367      26.87907531      10.62440767
C       49.51505646      26.87908236      12.67745859
C       48.03702276      26.87907957      12.17447616
F       50.99338841      26.87908526       8.74490943
F       49.51495855      26.87907711      14.05407736
C       53.21035648      28.15903595      10.12162844
C       50.25419913      28.15903126      10.62447680
C       51.73215191      28.15903831      12.67752772
C       50.25411822      28.15903552      12.17454528
F       53.21048386      28.15904121       8.74497855
F       51.73205400      28.15903307      14.05414648
C       55.42745193      29.43899191      10.12169756
C       52.47129458      29.43898722      10.62454592
C       53.94924737      29.43899427      12.67759684
C       52.47121367      29.43899148      12.17461441
F       55.42757932      29.43899717       8.74504768
F       53.94914946      29.43898902      14.05421561
C       57.64454739      30.71894786      10.12176669
C       54.68839004      30.71894317      10.62461505
C       56.16634283      30.71895022      12.67766597
C       54.68830913      30.71894743      12.17468353
F       57.64467478      30.71895312       8.74511680
F       56.16624492      30.71894498      14.05428473
C       59.86164285      31.99890382      10.12183581
C       56.90548550      31.99889913      10.62468417
C       58.38343829      31.99890618      12.67773509
C       56.90540459      31.99890339      12.17475266
F       59.86177024      31.99890907       8.74518592
F       58.38334037      31.99890093      14.05435386
C       62.07873830      33.27885977      10.12190494
C       59.12258095      33.27885508      10.62475329
C       60.60053374      33.27886213      12.67780422
C       59.12250004      33.27885934      12.17482178
F       62.07886569      33.27886503       8.74525505
F       60.60043583      33.27885689      14.05442298
C       64.29583376      34.55881573      10.12197406
C       61.33967641      34.55881104      10.62482242
C       62.81762920      34.55881809      12.67787334
C       61.33959550      34.55881530      12.17489091
F       64.29596115      34.55882098       8.74532417
F       62.81753129      34.55881284      14.05449211
C       66.51292922      35.83877168      10.12204319
C       63.55677187      35.83876699      10.62489154
C       65.03472466      35.83877404      12.67794247
C       63.55669096      35.83877125      12.17496003
F       66.51305661      35.83877694       8.74539330
F       65.03462674      35.83876880      14.05456123
C       68.73002467      37.11872764      10.12211231
C       65.77386732      37.11872294      10.62496067
C       67.25182011      37.11873000      12.67801159
C       65.77378641      37.11872721      12.17502915
F       68.73015206      37.11873289       8.74546242
F       67.25172220      37.11872475      14.05463036
C       70.94712013      38.39868359      10.12218144
C       67.99096278      38.39867890      10.62502979
C       69.46891557      38.39868595      12.67808072
C       67.99088187      38.39868316      12.17509828
F       70.94724752      38.39868885       8.74553155
F       69.46881766      38.39868071      14.05469948
C       73.16421559      39.67863955      10.12225056
C       70.20805824      39.67863485      10.62509892
C       71.68601103      39.67864191      12.67814984
C       70.20797733      39.67863912      12.17516740
F       73.16434298      39.67864480       8.74560067
F       71.68591311      39.67863666      14.05476860
C       75.38131104      40.95859550      10.12231969
C       72.42515370      40.95859081      10.62516804
C       73.90310648      40.95859786      12.67821897
C       72.42507278      40.95859507      12.17523653
F       75.38143843      40.95860076       8.74566980
F       73.90300857      40.95859261      14.05483773
C       77.59840650      42.23855146      10.12238881
C       74.64224915      42.23854676      10.62523717
C       76.12020194      42.23855382      12.67828809
C       74.64216824      42.23855103      12.17530565
F       77.59853389      42.23855671       8.74573892
F       76.12010403      42.23854857      14.05490685
C        6.65134849      -1.27994353      10.12017627
C        3.69519114      -1.27994822      10.62302462
C        5.17314393      -1.27994117      12.67607555
C        3.69511023      -1.27994396      12.17309311
F        6.65147588      -1.27993827       8.74352638
F        5.17304601      -1.27994642      14.05269431
C        8.86844395       0.00001243      10.12024539
C        5.91228660       0.00000773      10.62309375
C        7.39023938       0.00001479      12.67614467
C        5.91220568       0.00001200      12.17316223
F        8.86857133       0.00001768       8.74359550
F        7.39014147       0.00000954      14.05276344
C       11.08553940       1.27996838      10.12031452
C        8.12938205       1.27996369      10.62316287
C        9.60733484       1.27997074      12.67621380
C        8.12930114       1.27996795      12.17323136
F       11.08566679       1.27997364       8.74366463
F        9.60723693       1.27996549      14.05283256
C       13.30263486       2.55992434      10.12038364
C       10.34647751       2.55991964      10.62323200
C       11.82443030       2.55992670      12.67628292
C       10.34639660       2.55992390      12.17330048
F       13.30276225       2.55992959       8.74373375
F       11.82433239       2.55992145      14.05290169
C       15.51973032       3.83988029      10.12045277
C       12.56357297       3.83987560      10.62330112
C       14.04152575       3.83988265      12.67635205
C       12.56349206       3.83987986      12.17336961
F       15.51985770       3.83988555       8.74380288
F       14.04142784       3.83987740      14.05297081
C       17.73682577       5.11983625      10.12052189
C       14.78066842       5.11983155      10.62337025
C       16.25862121       5.11983860      12.67642117
C       14.78058751       5.11983581      12.17343873
F       17.73695316       5.11984150       8.74387200
F       16.25852330       5.11983336      14.05303993
C       19.95392123       6.39979220      10.12059102
C       16.99776388       6.39978751      10.62343937
C       18.47571667       6.39979456      12.67649030
C       16.99768297       6.39979177      12.17350786
F       19.95404862       6.39979746       8.74394113
F       18.47561876       6.39978931      14.05310906
C       22.17101669       7.67974816      10.12066014
C       19.21485934       7.67974346      10.62350850
C       20.69281213       7.67975051      12.67655942
C       19.21477843       7.67974772      12.17357698
F       22.17114408       7.67975341       8.74401025
F       20.69271421       7.67974527      14.05317818
C       24.38811214       8.95970411      10.12072926
C       21.43195479       8.95969942      10.62357762
C       22.90990758       8.95970647      12.67662855
C       21.43187388       8.95970368      12.17364611
F       24.38823953       8.95970937       8.74407938
F       22.90980967       8.95970122      14.05324731
C       26.60520760      10.23966006      10.12079839
C       23.64905025      10.23965537      10.62364675
C       25.12700304      10.23966242      12.67669767
C       23.64896934      10.23965963      12.17371523
F       26.60533499      10.23966532       8.74414850
F       25.12690513      10.23965718      14.05331643
C       28.82230306      11.51961602      10.12086751
C       25.86614571      11.51961133      10.62371587
C       27.34409850      11.51961838      12.67676679
C       25.86606480      11.51961559      12.17378436
F       28.82243045      11.51962128       8.74421763
F       27.34400058      11.51961313      14.05338556
C       31.03939851      12.79957197      10.12093664
C       28.08324116      12.79956728      10.62378500
C       29.56119395      12.79957433      12.67683592
C       28.08316025      12.79957154      12.17385348
F       31.03952590      12.79957723       8.74428675
F       29.56109604      12.79956909      14.05345468
C       33.25649397      14.07952793      10.12100576
C       30.30033662      14.07952324      10.62385412
C       31.77828941      14.07953029      12.67690504
C       30.30025571      14.07952750      12.17392261
F       33.25662136      14.07953318       8.74435588
F       31.77819150      14.07952504      14.05352381
C       35.47358943      15.35948388      10.12107489
C       32.51743208      15.35947919      10.62392325
C       33.99538487      15.35948624      12.67697417
C       32.51735117      15.35948345      12.17399173
F       35.47371682      15.35948914       8.74442500
F       33.99528695      15.35948100      14.05359293
C       37.69068488      16.63943984      10.12114401
C       34.73452754      16.63943514      10.62399237
C       36.21248032      16.63944220      12.67704329
C       34.73444662      16.63943941      12.17406086
F       37.69081227      16.63944509       8.74449412
F       36.21238241      16.63943695      14.05366206
C       39.90778034      17.91939579      10.12121314
C       36.95162299      17.91939110      10.62406149
C       38.42957578      17.91939815      12.67711242
C       36.95154208      17.91939536      12.17412998
F       39.90790773      17.91940105       8.74456325
F       38.42947787      17.91939291      14.05373118
C       42.12487580      19.19935175      10.12128226
C       39.16871845      19.19934705      10.62413062
C       40.64667124      19.19935411      12.67718154
C       39.16863754      19.19935132      12.17419911
F       42.12500319      19.19935700       8.74463237
F       40.64657332      19.19934886      14.05380031
C       44.34197126      20.47930770      10.12135139
C       41.38581391      20.47930301      10.62419974
C       42.86376669      20.47931006      12.67725067
C       41.38573299      20.47930727      12.17426823
F       44.34209864      20.47931296       8.74470150
F       42.86366878      20.47930481      14.05386943
C       46.55906671      21.75926366      10.12142051
C       43.60290936      21.75925896      10.62426887
C       45.08086215      21.75926602      12.67731979
C       43.60282845      21.75926323      12.17433735
F       46.55919410      21.75926891       8.74477062
F       45.08076424      21.75926077      14.05393856
C       48.77616217      23.03921961      10.12148964
C       45.82000482      23.03921492      10.62433799
C       47.29795761      23.03922197      12.67738892
C       45.81992391      23.03921918      12.17440648
F       48.77628956      23.03922487       8.74483975
F       47.29785970      23.03921672      14.05400768
C       50.99325763      24.31917557      10.12155876
C       48.03710028      24.31917087      10.62440712
C       49.51505306      24.31917793      12.67745804
C       48.03701937      24.31917514      12.17447560
F       50.99338501      24.31918082       8.74490887
F       49.51495515      24.31917268      14.05407680
C       53.21035308      25.59913152      10.12162789
C       50.25419573      25.59912683      10.62447624
C       51.73214852      25.59913388      12.67752717
C       50.25411482      25.59913109      12.17454473
F       53.21048047      25.59913678       8.74497800
F       51.73205061      25.59912863      14.05414593
C       55.42744854      26.87908748      10.12169701
C       52.47129119      26.87908278      10.62454537
C       53.94924398      26.87908984      12.67759629
C       52.47121028      26.87908704      12.17461385
F       55.42757593      26.87909273       8.74504712
F       53.94914607      26.87908459      14.05421505
C       57.64454400      28.15904343      10.12176613
C       54.68838665      28.15903874      10.62461449
C       56.16633944      28.15904579      12.67766542
C       54.68830574      28.15904300      12.17468298
F       57.64467139      28.15904869       8.74511625
F       56.16624152      28.15904054      14.05428418
C       59.86163945      29.43899939      10.12183526
C       56.90548210      29.43899469      10.62468362
C       58.38343489      29.43900174      12.67773454
C       56.90540119      29.43899895      12.17475210
F       59.86176684      29.43900464       8.74518537
F       58.38333698      29.43899650      14.05435330
C       62.07873491      30.71895534      10.12190438
C       59.12257756      30.71895065      10.62475274
C       60.60053035      30.71895770      12.67780366
C       59.12249665      30.71895491      12.17482123
F       62.07886230      30.71896060       8.74525450
F       60.60043244      30.71895245      14.05442243
C       64.29583037      31.99891129      10.12197351
C       61.33967302      31.99890660      10.62482187
C       62.81762581      31.99891365      12.67787279
C       61.33959211      31.99891086      12.17489035
F       64.29595776      31.99891655       8.74532362
F       62.81752789      31.99890841      14.05449155
C       66.51292582      33.27886725      10.12204263
C       63.55676847      33.27886256      10.62489099
C       65.03472126      33.27886961      12.67794191
C       63.55668756      33.27886682      12.17495948
F       66.51305321      33.27887251       8.74539275
F       65.03462335      33.27886436      14.05456068
C       68.73002128      34.55882320      10.12211176
C       65.77386393      34.55881851      10.62496012
C       67.25181672      34.55882556      12.67801104
C       65.77378302      34.55882277      12.17502860
F       68.73014867      34.55882846       8.74546187
F       67.25171881      34.55882032      14.05462980
C       70.94711674      35.83877916      10.12218088
C       67.99095939      35.83877447      10.62502924
C       69.46891218      35.83878152      12.67808016
C       67.99087848      35.83877873      12.17509773
F       70.94724413      35.83878441       8.74553099
F       69.46881426      35.83877627      14.05469893
C       73.16421219      37.11873511      10.12225001
C       70.20805485      37.11873042      10.62509837
C       71.68600763      37.11873747      12.67814929
C       70.20797393      37.11873468      12.17516685
F       73.16433958      37.11874037       8.74560012
F       71.68590972      37.11873223      14.05476805
C       75.38130765      38.39869107      10.12231913
C       72.42515030      38.39868638      10.62516749
C       73.90310309      38.39869343      12.67821841
C       72.42506939      38.39869064      12.17523598
F       75.38143504      38.39869632       8.74566924
F       73.90300518      38.39868818      14.05483718
C       77.59840311      39.67864702      10.12238826
C       74.64224576      39.67864233      10.62523661
C       76.12019855      39.67864938      12.67828754
C       74.64216485      39.67864659      12.17530510
F       77.59853050      39.67865228       8.74573837
F       76.12010063      39.67864414      14.05490630
C       79.81549857      40.95860298      10.12245738
C       76.85934122      40.95859828      10.62530574
C       78.33729400      40.95860534      12.67835666
C       76.85926030      40.95860255      12.17537422
F       79.81562595      40.95860823       8.74580749
F       78.33719609      40.95860009      14.05497543
C        8.86844055      -2.55989201      10.12024484
C        5.91228320      -2.55989670      10.62309320
C        7.39023599      -2.55988965      12.67614412
C        5.91220229      -2.55989244      12.17316168
F        8.86856794      -2.55988675       8.74359495
F        7.39013808      -2.55989489      14.05276288
C       11.08553601      -1.27993605      10.12031396
C        8.12937866      -1.27994075      10.62316232
C        9.60733145      -1.27993369      12.67621324
C        8.12929775      -1.27993648      12.17323081
F       11.08566340      -1.27993080       8.74366408
F        9.60723354      -1.27993894      14.05283201
C       13.30263147       0.00001990      10.12038309
C       10.34647412       0.00001521      10.62323145
C       11.82442691       0.00002226      12.67628237
C       10.34639321       0.00001947      12.17329993
F       13.30275885       0.00002516       8.74373320
F       11.82432899       0.00001701      14.05290113
C       15.51972692       1.27997586      10.12045221
C       12.56356957       1.27997116      10.62330057
C       14.04152236       1.27997822      12.67635149
C       12.56348866       1.27997543      12.17336906
F       15.51985431       1.27998111       8.74380232
F       14.04142445       1.27997297      14.05297026
C       17.73682238       2.55993181      10.12052134
C       14.78066503       2.55992712      10.62336969
C       16.25861782       2.55993417      12.67642062
C       14.78058412       2.55993138      12.17343818
F       17.73694977       2.55993707       8.74387145
F       16.25851991       2.55992892      14.05303938
C       19.95391784       3.83988777      10.12059046
C       16.99776049       3.83988307      10.62343882
C       18.47571328       3.83989013      12.67648974
C       16.99767958       3.83988734      12.17350731
F       19.95404523       3.83989302       8.74394057
F       18.47561536       3.83988488      14.05310851
C       22.17101329       5.11984372      10.12065959
C       19.21485594       5.11983903      10.62350794
C       20.69280873       5.11984608      12.67655887
C       19.21477503       5.11984329      12.17357643
F       22.17114068       5.11984898       8.74400970
F       20.69271082       5.11984083      14.05317763
C       24.38810875       6.39979968      10.12072871
C       21.43195140       6.39979498      10.62357707
C       22.90990419       6.39980204      12.67662799
C       21.43187049       6.39979924      12.17364555
F       24.38823614       6.39980493       8.74407882
F       22.90980628       6.39979679      14.05324676
C       26.60520421       7.67975563      10.12079784
C       23.64904686       7.67975094      10.62364619
C       25.12699965       7.67975799      12.67669712
C       23.64896595       7.67975520      12.17371468
F       26.60533160       7.67976089       8.74414795
F       25.12690173       7.67975274      14.05331588
C       28.82229966       8.95971159      10.12086696
C       25.86614231       8.95970689      10.62371532
C       27.34409510       8.95971394      12.67676624
C       25.86606140       8.95971115      12.17378380
F       28.82242705       8.95971684       8.74421707
F       27.34399719       8.95970870      14.05338500
C       31.03939512      10.23966754      10.12093609
C       28.08323777      10.23966285      10.62378444
C       29.56119056      10.23966990      12.67683537
C       28.08315686      10.23966711      12.17385293
F       31.03952251      10.23967280       8.74428620
F       29.56109265      10.23966465      14.05345413
C       33.25649058      11.51962349      10.12100521
C       30.30033323      11.51961880      10.62385357
C       31.77828602      11.51962585      12.67690449
C       30.30025232      11.51962306      12.17392205
F       33.25661797      11.51962875       8.74435532
F       31.77818810      11.51962061      14.05352325
C       35.47358603      12.79957945      10.12107433
C       32.51742869      12.79957476      10.62392269
C       33.99538147      12.79958181      12.67697362
C       32.51734777      12.79957902      12.17399118
F       35.47371342      12.79958471       8.74442445
F       33.99528356      12.79957656      14.05359238
C       37.69068149      14.07953540      10.12114346
C       34.73452414      14.07953071      10.62399182
C       36.21247693      14.07953776      12.67704274
C       34.73444323      14.07953497      12.17406030
F       37.69080888      14.07954066       8.74449357
F       36.21237902      14.07953252      14.05366150
C       39.90777695      15.35949136      10.12121258
C       36.95161960      15.35948667      10.62406094
C       38.42957239      15.35949372      12.67711186
C       36.95153869      15.35949093      12.17412943
F       39.90790434      15.35949662       8.74456270
F       38.42947447      15.35948847      14.05373063
C       42.12487241      16.63944731      10.12128171
C       39.16871506      16.63944262      10.62413007
C       40.64666784      16.63944967      12.67718099
C       39.16863414      16.63944688      12.17419855
F       42.12499979      16.63945257       8.74463182
F       40.64656993      16.63944443      14.05379975
C       44.34196786      17.91940327      10.12135083
C       41.38581051      17.91939858      10.62419919
C       42.86376330      17.91940563      12.67725011
C       41.38572960      17.91940284      12.17426768
F       44.34209525      17.91940852       8.74470095
F       42.86366539      17.91940038      14.05386888
C       46.55906332      19.19935922      10.12141996
C       43.60290597      19.19935453      10.62426832
C       45.08085876      19.19936158      12.67731924
C       43.60282506      19.19935879      12.17433680
F       46.55919071      19.19936448       8.74477007
F       45.08076085      19.19935634      14.05393800
C       48.77615878      20.47931518      10.12148908
C       45.82000143      20.47931048      10.62433744
C       47.29795422      20.47931754      12.67738836
C       45.81992052      20.47931475      12.17440593
F       48.77628616      20.47932043       8.74483919
F       47.29785630      20.47931229      14.05400713
C       50.99325423      21.75927113      10.12155821
C       48.03709688      21.75926644      10.62440657
C       49.51504967      21.75927349      12.67745749
C       48.03701597      21.75927070      12.17447505
F       50.99338162      21.75927639       8.74490832
F       49.51495176      21.75926825      14.05407625
C       53.21034969      23.03922709      10.12162733
C       50.25419234      23.03922239      10.62447569
C       51.73214513      23.03922945      12.67752661
C       50.25411143      23.03922666      12.17454418
F       53.21047708      23.03923234       8.74497744
F       51.73204722      23.03922420      14.05414538
C       55.42744515      24.31918304      10.12169646
C       52.47128780      24.31917835      10.62454481
C       53.94924059      24.31918540      12.67759574
C       52.47120689      24.31918261      12.17461330
F       55.42757254      24.31918830       8.74504657
F       53.94914267      24.31918015      14.05421450
C       57.64454060      25.59913900      10.12176558
C       54.68838325      25.59913430      10.62461394
C       56.16633604      25.59914136      12.67766486
C       54.68830234      25.59913857      12.17468242
F       57.64466799      25.59914425       8.74511569
F       56.16623813      25.59913611      14.05428363
C       59.86163606      26.87909495      10.12183471
C       56.90547871      26.87909026      10.62468306
C       58.38343150      26.87909731      12.67773399
C       56.90539780      26.87909452      12.17475155
F       59.86176345      26.87910021       8.74518482
F       58.38333359      26.87909206      14.05435275
C       62.07873152      28.15905091      10.12190383
C       59.12257417      28.15904621      10.62475219
C       60.60052696      28.15905327      12.67780311
C       59.12249326      28.15905048      12.17482067
F       62.07885891      28.15905616       8.74525394
F       60.60042904      28.15904802      14.05442187
C       64.29582697      29.43900686      10.12197296
C       61.33966962      29.43900217      10.62482131
C       62.81762241      29.43900922      12.67787224
C       61.33958871      29.43900643      12.17488980
F       64.29595436      29.43901212       8.74532307
F       62.81752450      29.43900397      14.05449100
C       66.51292243      30.71896282      10.12204208
C       63.55676508      30.71895812      10.62489044
C       65.03471787      30.71896518      12.67794136
C       63.55668417      30.71896238      12.17495892
F       66.51304982      30.71896807       8.74539219
F       65.03461996      30.71895993      14.05456012
C       68.73001789      31.99891877      10.12211120
C       65.77386054      31.99891408      10.62495956
C       67.25181333      31.99892113      12.67801049
C       65.77377963      31.99891834      12.17502805
F       68.73014528      31.99892403       8.74546132
F       67.25171541      31.99891588      14.05462925
C       70.94711334      33.27887473      10.12218033
C       67.99095600      33.27887003      10.62502869
C       69.46890878      33.27887708      12.67807961
C       67.99087508      33.27887429      12.17509717
F       70.94724073      33.27887998       8.74553044
F       69.46881087      33.27887184      14.05469837
C       73.16420880      34.55883068      10.12224945
C       70.20805145      34.55882599      10.62509781
C       71.68600424      34.55883304      12.67814874
C       70.20797054      34.55883025      12.17516630
F       73.16433619      34.55883594       8.74559957
F       71.68590633      34.55882779      14.05476750
C       75.38130426      35.83878663      10.12231858
C       72.42514691      35.83878194      10.62516694
C       73.90309970      35.83878899      12.67821786
C       72.42506600      35.83878620      12.17523542
F       75.38143165      35.83879189       8.74566869
F       73.90300178      35.83878375      14.05483662
C       77.59839972      37.11874259      10.12238770
C       74.64224237      37.11873790      10.62523606
C       76.12019515      37.11874495      12.67828698
C       74.64216145      37.11874216      12.17530455
F       77.59852710      37.11874785       8.74573782
F       76.12009724      37.11873970      14.05490575
C       79.81549517      38.39869854      10.12245683
C       76.85933782      38.39869385      10.62530519
C       78.33729061      38.39870090      12.67835611
C       76.85925691      38.39869811      12.17537367
F       79.81562256      38.39870380       8.74580694
F       78.33719270      38.39869566      14.05497487
C       82.03259063      39.67865450      10.12252595
C       79.07643328      39.67864981      10.62537431
C       80.55438607      39.67865686      12.67842523
C       79.07635237      39.67865407      12.17544280
F       82.03271802      39.67865975       8.74587607
F       80.55428816      39.67865161      14.05504400
C       11.08553262      -3.83984049      10.12031341
C        8.12937527      -3.83984518      10.62316177
C        9.60732806      -3.83983813      12.67621269
C        8.12929436      -3.83984092      12.17323025
F       11.08566001      -3.83983523       8.74366352
F        9.60723014      -3.83984337      14.05283145
C       13.30262807      -2.55988453      10.12038253
C       10.34647072      -2.55988922      10.62323089
C       11.82442351      -2.55988217      12.67628182
C       10.34638981      -2.55988496      12.17329938
F       13.30275546      -2.55987928       8.74373265
F       11.82432560      -2.55988742      14.05290058
C       15.51972353      -1.27992858      10.12045166
C       12.56356618      -1.27993327      10.62330002
C       14.04151897      -1.27992622      12.67635094
C       12.56348527      -1.27992901      12.17336850
F       15.51985092      -1.27992332       8.74380177
F       14.04142106      -1.27993146      14.05296970
C       17.73681899       0.00002738      10.12052078
C       14.78066164       0.00002268      10.62336914
C       16.25861443       0.00002974      12.67642007
C       14.78058073       0.00002695      12.17343763
F       17.73694638       0.00003263       8.74387090
F       16.25851651       0.00002449      14.05303883
C       19.95391444       1.27998333      10.12058991
C       16.99775709       1.27997864      10.62343827
C       18.47570988       1.27998569      12.67648919
C       16.99767618       1.27998290      12.17350675
F       19.95404183       1.27998859       8.74394002
F       18.47561197       1.27998045      14.05310795
C       22.17100990       2.55993929      10.12065903
C       19.21485255       2.55993459      10.62350739
C       20.69280534       2.55994165      12.67655831
C       19.21477164       2.55993886      12.17357588
F       22.17113729       2.55994454       8.74400915
F       20.69270743       2.55993640      14.05317708
C       24.38810536       3.83989524      10.12072816
C       21.43194801       3.83989055      10.62357652
C       22.90990080       3.83989760      12.67662744
C       21.43186710       3.83989481      12.17364500
F       24.38823275       3.83990050       8.74407827
F       22.90980288       3.83989235      14.05324620
C       26.60520081       5.11985120      10.12079728
C       23.64904347       5.11984650      10.62364564
C       25.12699625       5.11985356      12.67669656
C       23.64896255       5.11985077      12.17371413
F       26.60532820       5.11985645       8.74414740
F       25.12689834       5.11984831      14.05331533
C       28.82229627       6.39980715      10.12086641
C       25.86613892       6.39980246      10.62371477
C       27.34409171       6.39980951      12.67676569
C       25.86605801       6.39980672      12.17378325
F       28.82242366       6.39981241       8.74421652
F       27.34399380       6.39980426      14.05338445
C       31.03939173       7.67976311      10.12093553
C       28.08323438       7.67975841      10.62378389
C       29.56118717       7.67976547      12.67683481
C       28.08315347       7.67976268      12.17385238
F       31.03951912       7.67976836       8.74428564
F       29.56108925       7.67976022      14.05345358
C       33.25648719       8.95971906      10.12100466
C       30.30032984       8.95971437      10.62385301
C       31.77828262       8.95972142      12.67690394
C       30.30024892       8.95971863      12.17392150
F       33.25661457       8.95972432       8.74435477
F       31.77818471       8.95971617      14.05352270
C       35.47358264      10.23967502      10.12107378
C       32.51742529      10.23967032      10.62392214
C       33.99537808      10.23967738      12.67697306
C       32.51734438      10.23967458      12.17399062
F       35.47371003      10.23968027       8.74442389
F       33.99528017      10.23967213      14.05359183
C       37.69067810      11.51963097      10.12114291
C       34.73452075      11.51962628      10.62399126
C       36.21247354      11.51963333      12.67704219
C       34.73443984      11.51963054      12.17405975
F       37.69080549      11.51963623       8.74449302
F       36.21237563      11.51962808      14.05366095
C       39.90777356      12.79958693      10.12121203
C       36.95161621      12.79958223      10.62406039
C       38.42956899      12.79958928      12.67711131
C       36.95153530      12.79958649      12.17412887
F       39.90790094      12.79959218       8.74456214
F       38.42947108      12.79958404      14.05373007
C       42.12486901      14.07954288      10.12128116
C       39.16871166      14.07953819      10.62412951
C       40.64666445      14.07954524      12.67718044
C       39.16863075      14.07954245      12.17419800
F       42.12499640      14.07954814       8.74463127
F       40.64656654      14.07953999      14.05379920
C       44.34196447      15.35949883      10.12135028
C       41.38580712      15.35949414      10.62419864
C       42.86375991      15.35950119      12.67724956
C       41.38572621      15.35949840      12.17426712
F       44.34209186      15.35950409       8.74470039
F       42.86366200      15.35949595      14.05386832
C       46.55905993      16.63945479      10.12141940
C       43.60290258      16.63945010      10.62426776
C       45.08085537      16.63945715      12.67731869
C       43.60282167      16.63945436      12.17433625
F       46.55918731      16.63946005       8.74476952
F       45.08075745      16.63945190      14.05393745
C       48.77615538      17.91941074      10.12148853
C       45.81999803      17.91940605      10.62433689
C       47.29795082      17.91941310      12.67738781
C       45.81991712      17.91941031      12.17440537
F       48.77628277      17.91941600       8.74483864
F       47.29785291      17.91940786      14.05400657
C       50.99325084      19.19936670      10.12155765
C       48.03709349      19.19936201      10.62440601
C       49.51504628      19.19936906      12.67745694
C       48.03701258      19.19936627      12.17447450
F       50.99337823      19.19937195       8.74490777
F       49.51494837      19.19936381      14.05407570
C       53.21034630      20.47932265      10.12162678
C       50.25418895      20.47931796      10.62447514
C       51.73214174      20.47932501      12.67752606
C       50.25410804      20.47932222      12.17454362
F       53.21047369      20.47932791       8.74497689
F       51.73204382      20.47931977      14.05414482
C       55.42744175      21.75927861      10.12169590
C       52.47128440      21.75927392      10.62454426
C       53.94923719      21.75928097      12.67759518
C       52.47120349      21.75927818      12.17461275
F       55.42756914      21.75928386       8.74504602
F       53.94913928      21.75927572      14.05421395
C       57.64453721      23.03923456      10.12176503
C       54.68837986      23.03922987      10.62461339
C       56.16633265      23.03923692      12.67766431
C       54.68829895      23.03923413      12.17468187
F       57.64466460      23.03923982       8.74511514
F       56.16623474      23.03923168      14.05428307
C       59.86163267      24.31919052      10.12183415
C       56.90547532      24.31918582      10.62468251
C       58.38342811      24.31919288      12.67773343
C       56.90539441      24.31919009      12.17475100
F       59.86176006      24.31919577       8.74518427
F       58.38333019      24.31918763      14.05435220
C       62.07872812      25.59914647      10.12190328
C       59.12257078      25.59914178      10.62475164
C       60.60052356      25.59914883      12.67780256
C       59.12248986      25.59914604      12.17482012
F       62.07885551      25.59915173       8.74525339
F       60.60042565      25.59914359      14.05442132
C       64.29582358      26.87910243      10.12197240
C       61.33966623      26.87909773      10.62482076
C       62.81761902      26.87910479      12.67787168
C       61.33958532      26.87910200      12.17488925
F       64.29595097      26.87910768       8.74532251
F       62.81752111      26.87909954      14.05449045
C       66.51291904      28.15905838      10.12204153
C       63.55676169      28.15905369      10.62488988
C       65.03471448      28.15906074      12.67794081
C       63.55668078      28.15905795      12.17495837
F       66.51304643      28.15906364       8.74539164
F       65.03461656      28.15905549      14.05455957
C       68.73001450      29.43901434      10.12211065
C       65.77385715      29.43900964      10.62495901
C       67.25180993      29.43901670      12.67800993
C       65.77377623      29.43901391      12.17502749
F       68.73014188      29.43901959       8.74546076
F       67.25171202      29.43901145      14.05462870
C       70.94710995      30.71897029      10.12217978
C       67.99095260      30.71896560      10.62502813
C       69.46890539      30.71897265      12.67807906
C       67.99087169      30.71896986      12.17509662
F       70.94723734      30.71897555       8.74552989
F       69.46880748      30.71896740      14.05469782
C       73.16420541      31.99892625      10.12224890
C       70.20804806      31.99892155      10.62509726
C       71.68600085      31.99892861      12.67814818
C       70.20796715      31.99892582      12.17516574
F       73.16433280      31.99893150       8.74559901
F       71.68590294      31.99892336      14.05476694
C       75.38130087      33.27888220      10.12231803
C       72.42514352      33.27887751      10.62516638
C       73.90309630      33.27888456      12.67821731
C       72.42506261      33.27888177      12.17523487
F       75.38142825      33.27888746       8.74566814
F       73.90299839      33.27887931      14.05483607
C       77.59839632      34.55883816      10.12238715
C       74.64223897      34.55883346      10.62523551
C       76.12019176      34.55884052      12.67828643
C       74.64215806      34.55883772      12.17530399
F       77.59852371      34.55884341       8.74573726
F       76.12009385      34.55883527      14.05490519
C       79.81549178      35.83879411      10.12245628
C       76.85933443      35.83878942      10.62530463
C       78.33728722      35.83879647      12.67835556
C       76.85925352      35.83879368      12.17537312
F       79.81561917      35.83879937       8.74580639
F       78.33718931      35.83879122      14.05497432
C       82.03258724      37.11875007      10.12252540
C       79.07642989      37.11874537      10.62537376
C       80.55438268      37.11875242      12.67842468
C       79.07634898      37.11874963      12.17544224
F       82.03271462      37.11875532       8.74587551
F       80.55428476      37.11874718      14.05504344
C       84.24968269      38.39870602      10.12259452
C       81.29352534      38.39870133      10.62544288
C       82.77147813      38.39870838      12.67849381
C       81.29344443      38.39870559      12.17551137
F       84.24981008      38.39871128       8.74594464
F       82.77138022      38.39870313      14.05511257
C       13.30262468      -5.11978896      10.12038198
C       10.34646733      -5.11979366      10.62323034
C       11.82442012      -5.11978661      12.67628126
C       10.34638642      -5.11978940      12.17329882
F       13.30275207      -5.11978371       8.74373209
F       11.82432221      -5.11979185      14.05290003
C       15.51972014      -3.83983301      10.12045111
C       12.56356279      -3.83983770      10.62329946
C       14.04151558      -3.83983065      12.67635039
C       12.56348188      -3.83983344      12.17336795
F       15.51984753      -3.83982775       8.74380122
F       14.04141766      -3.83983590      14.05296915
C       17.73681559      -2.55987706      10.12052023
C       14.78065824      -2.55988175      10.62336859
C       16.25861103      -2.55987470      12.67641951
C       14.78057733      -2.55987749      12.17343707
F       17.73694298      -2.55987180       8.74387034
F       16.25851312      -2.55987994      14.05303827
C       19.95391105      -1.27992110      10.12058936
C       16.99775370      -1.27992579      10.62343771
C       18.47570649      -1.27991874      12.67648864
C       16.99767279      -1.27992153      12.17350620
F       19.95403844      -1.27991584       8.74393947
F       18.47560858      -1.27992399      14.05310740
C       22.17100651       0.00003485      10.12065848
C       19.21484916       0.00003016      10.62350684
C       20.69280195       0.00003721      12.67655776
C       19.21476825       0.00003442      12.17357532
F       22.17113390       0.00004011       8.74400859
F       20.69270403       0.00003197      14.05317652
C       24.38810196       1.27999081      10.12072760
C       21.43194462       1.27998612      10.62357596
C       22.90989740       1.27999317      12.67662689
C       21.43186370       1.27999038      12.17364445
F       24.38822935       1.27999606       8.74407772
F       22.90979949       1.27998792      14.05324565
C       26.60519742       2.55994676      10.12079673
C       23.64904007       2.55994207      10.62364509
C       25.12699286       2.55994912      12.67669601
C       23.64895916       2.55994633      12.17371357
F       26.60532481       2.55995202       8.74414684
F       25.12689495       2.55994388      14.05331477
C       28.82229288       3.83990272      10.12086585
C       25.86613553       3.83989802      10.62371421
C       27.34408832       3.83990508      12.67676514
C       25.86605462       3.83990229      12.17378270
F       28.82242027       3.83990797       8.74421597
F       27.34399040       3.83989983      14.05338390
C       31.03938834       5.11985867      10.12093498
C       28.08323099       5.11985398      10.62378334
C       29.56118377       5.11986103      12.67683426
C       28.08315007       5.11985824      12.17385182
F       31.03951572       5.11986393       8.74428509
F       29.56108586       5.11985579      14.05345302
C       33.25648379       6.39981463      10.12100410
C       30.30032644       6.39980993      10.62385246
C       31.77827923       6.39981699      12.67690338
C       30.30024553       6.39981420      12.17392095
F       33.25661118       6.39981988       8.74435422
F       31.77818132       6.39981174      14.05352215
C       35.47357925       7.67977058      10.12107323
C       32.51742190       7.67976589      10.62392159
C       33.99537469       7.67977294      12.67697251
C       32.51734099       7.67977015      12.17399007
F       35.47370664       7.67977584       8.74442334
F       33.99527678       7.67976769      14.05359127
C       37.69067471       8.95972654      10.12114235
C       34.73451736       8.95972184      10.62399071
C       36.21247014       8.95972890      12.67704163
C       34.73443645       8.95972611      12.17405920
F       37.69080209       8.95973179       8.74449247
F       36.21237223       8.95972365      14.05366040
C       39.90777016      10.23968249      10.12121148
C       36.95161281      10.23967780      10.62405984
C       38.42956560      10.23968485      12.67711076
C       36.95153190      10.23968206      12.17412832
F       39.90789755      10.23968775       8.74456159
F       38.42946769      10.23967960      14.05372952
C       42.12486562      11.51963845      10.12128060
C       39.16870827      11.51963375      10.62412896
C       40.64666106      11.51964081      12.67717988
C       39.16862736      11.51963802      12.17419745
F       42.12499301      11.51964370       8.74463071
F       40.64656315      11.51963556      14.05379865
C       44.34196108      12.79959440      10.12134973
C       41.38580373      12.79958971      10.62419808
C       42.86375652      12.79959676      12.67724901
C       41.38572282      12.79959397      12.17426657
F       44.34208847      12.79959966       8.74469984
F       42.86365860      12.79959151      14.05386777
C       46.55905653      14.07955036      10.12141885
C       43.60289918      14.07954566      10.62426721
C       45.08085197      14.07955272      12.67731813
C       43.60281827      14.07954992      12.17433570
F       46.55918392      14.07955561       8.74476896
F       45.08075406      14.07954747      14.05393690
C       48.77615199      15.35950631      10.12148798
C       45.81999464      15.35950162      10.62433633
C       47.29794743      15.35950867      12.67738726
C       45.81991373      15.35950588      12.17440482
F       48.77627938      15.35951157       8.74483809
F       47.29784952      15.35950342      14.05400602
C       50.99324745      16.63946227      10.12155710
C       48.03709010      16.63945757      10.62440546
C       49.51504289      16.63946462      12.67745638
C       48.03700919      16.63946183      12.17447394
F       50.99337484      16.63946752       8.74490721
F       49.51494497      16.63945938      14.05407515
C       53.21034290      17.91941822      10.12162623
C       50.25418555      17.91941353      10.62447458
C       51.73213834      17.91942058      12.67752551
C       50.25410464      17.91941779      12.17454307
F       53.21047029      17.91942348       8.74497634
F       51.73204043      17.91941533      14.05414427
C       55.42743836      19.19937417      10.12169535
C       52.47128101      19.19936948      10.62454371
C       53.94923380      19.19937653      12.67759463
C       52.47120010      19.19937374      12.17461219
F       55.42756575      19.19937943       8.74504546
F       53.94913589      19.19937129      14.05421339
C       57.64453382      20.47933013      10.12176448
C       54.68837647      20.47932544      10.62461283
C       56.16632926      20.47933249      12.67766376
C       54.68829556      20.47932970      12.17468132
F       57.64466121      20.47933539       8.74511459
F       56.16623134      20.47932724      14.05428252
C       59.86162927      21.75928608      10.12183360
C       56.90547193      21.75928139      10.62468196
C       58.38342471      21.75928844      12.67773288
C       56.90539101      21.75928565      12.17475044
F       59.86175666      21.75929134       8.74518371
F       58.38332680      21.75928320      14.05435164
C       62.07872473      23.03924204      10.12190272
C       59.12256738      23.03923735      10.62475108
C       60.60052017      23.03924440      12.67780201
C       59.12248647      23.03924161      12.17481957
F       62.07885212      23.03924729       8.74525284
F       60.60042226      23.03923915      14.05442077
C       64.29582019      24.31919799      10.12197185
C       61.33966284      24.31919330      10.62482021
C       62.81761563      24.31920035      12.67787113
C       61.33958193      24.31919756      12.17488869
F       64.29594758      24.31920325       8.74532196
F       62.81751771      24.31919511      14.05448989
C       66.51291565      25.59915395      10.12204097
C       63.55675830      25.59914926      10.62488933
C       65.03471108      25.59915631      12.67794025
C       63.55667738      25.59915352      12.17495782
F       66.51304303      25.59915920       8.74539109
F       65.03461317      25.59915106      14.05455902
C       68.73001110      26.87910990      10.12211010
C       65.77385375      26.87910521      10.62495846
C       67.25180654      26.87911226      12.67800938
C       65.77377284      26.87910947      12.17502694
F       68.73013849      26.87911516       8.74546021
F       67.25170863      26.87910702      14.05462814
C       70.94710656      28.15906586      10.12217922
C       67.99094921      28.15906116      10.62502758
C       69.46890200      28.15906822      12.67807850
C       67.99086830      28.15906543      12.17509607
F       70.94723395      28.15907111       8.74552934
F       69.46880409      28.15906297      14.05469727
C       73.16420202      29.43902181      10.12224835
C       70.20804467      29.43901712      10.62509671
C       71.68599745      29.43902417      12.67814763
C       70.20796376      29.43902138      12.17516519
F       73.16432940      29.43902707       8.74559846
F       71.68589954      29.43901893      14.05476639
C       75.38129747      30.71897777      10.12231747
C       72.42514012      30.71897307      10.62516583
C       73.90309291      30.71898013      12.67821675
C       72.42505921      30.71897734      12.17523432
F       75.38142486      30.71898302       8.74566758
F       73.90299500      30.71897488      14.05483552
C       77.59839293      31.99893372      10.12238660
C       74.64223558      31.99892903      10.62523495
C       76.12018837      31.99893608      12.67828588
C       74.64215467      31.99893329      12.17530344
F       77.59852032      31.99893898       8.74573671
F       76.12009046      31.99893083      14.05490464
C       79.81548839      33.27888968      10.12245572
C       76.85933104      33.27888498      10.62530408
C       78.33728383      33.27889204      12.67835500
C       76.85925013      33.27888925      12.17537257
F       79.81561578      33.27889493       8.74580583
F       78.33718591      33.27888679      14.05497377
C       82.03258384      34.55884563      10.12252485
C       79.07642649      34.55884094      10.62537320
C       80.55437928      34.55884799      12.67842413
C       79.07634558      34.55884520      12.17544169
F       82.03271123      34.55885089       8.74587496
F       80.55428137      34.55884274      14.05504289
C       84.24967930      35.83880159      10.12259397
C       81.29352195      35.83879689      10.62544233
C       82.77147474      35.83880395      12.67849325
C       81.29344104      35.83880115      12.17551081
F       84.24980669      35.83880684       8.74594408
F       82.77137683      35.83879870      14.05511202
C       86.46677476      37.11875754      10.12266310
C       83.51061741      37.11875285      10.62551145
C       84.98857020      37.11875990      12.67856238
C       83.51053650      37.11875711      12.17557994
F       86.46690215      37.11876280       8.74601321
F       84.98847228      37.11875465      14.05518114
C       15.51971674      -6.39973744      10.12045055
C       12.56355939      -6.39974214      10.62329891
C       14.04151218      -6.39973508      12.67634983
C       12.56347848      -6.39973788      12.17336740
F       15.51984413      -6.39973219       8.74380067
F       14.04141427      -6.39974033      14.05296860
C       17.73681220      -5.11978149      10.12051968
C       14.78065485      -5.11978618      10.62336804
C       16.25860764      -5.11977913      12.67641896
C       14.78057394      -5.11978192      12.17343652
F       17.73693959      -5.11977623       8.74386979
F       16.25850973      -5.11978438      14.05303772
C       19.95390766      -3.83982553      10.12058880
C       16.99775031      -3.83983023      10.62343716
C       18.47570310      -3.83982318      12.67648808
C       16.99766940      -3.83982597      12.17350565
F       19.95403505      -3.83982028       8.74393891
F       18.47560518      -3.83982842      14.05310685
C       22.17100311      -2.55986958      10.12065793
C       19.21484577      -2.55987427      10.62350628
C       20.69279855      -2.55986722      12.67655721
C       19.21476485      -2.55987001      12.17357477
F       22.17113050      -2.55986432       8.74400804
F       20.69270064      -2.55987247      14.05317597
C       24.38809857      -1.27991363      10.12072705
C       21.43194122      -1.27991832      10.62357541
C       22.90989401      -1.27991127      12.67662633
C       21.43186031      -1.27991406      12.17364390
F       24.38822596      -1.27990837       8.74407716
F       22.90979610      -1.27991651      14.05324510
C       26.60519403       0.00004233      10.12079618
C       23.64903668       0.00003764      10.62364453
C       25.12698947       0.00004469      12.67669546
C       23.64895577       0.00004190      12.17371302
F       26.60532142       0.00004759       8.74414629
F       25.12689155       0.00003944      14.05331422
C       28.82228949       1.27999828      10.12086530
C       25.86613214       1.27999359      10.62371366
C       27.34408492       1.28000064      12.67676458
C       25.86605122       1.27999785      12.17378214
F       28.82241687       1.28000354       8.74421541
F       27.34398701       1.27999540      14.05338335
C       31.03938494       2.55995424      10.12093443
C       28.08322759       2.55994955      10.62378278
C       29.56118038       2.55995660      12.67683371
C       28.08314668       2.55995381      12.17385127
F       31.03951233       2.55995950       8.74428454
F       29.56108247       2.55995135      14.05345247
C       33.25648040       3.83991019      10.12100355
C       30.30032305       3.83990550      10.62385191
C       31.77827584       3.83991255      12.67690283
C       30.30024214       3.83990976      12.17392039
F       33.25660779       3.83991545       8.74435366
F       31.77817793       3.83990731      14.05352159
C       35.47357586       5.11986615      10.12107268
C       32.51741851       5.11986146      10.62392103
C       33.99537129       5.11986851      12.67697196
C       32.51733760       5.11986572      12.17398952
F       35.47370324       5.11987140       8.74442279
F       33.99527338       5.11986326      14.05359072
C       37.69067131       6.39982210      10.12114180
C       34.73451396       6.39981741      10.62399016
C       36.21246675       6.39982446      12.67704108
C       34.73443305       6.39982167      12.17405864
F       37.69079870       6.39982736       8.74449191
F       36.21236884       6.39981922      14.05365984
C       39.90776677       7.67977806      10.12121092
C       36.95160942       7.67977336      10.62405928
C       38.42956221       7.67978042      12.67711021
C       36.95152851       7.67977763      12.17412777
F       39.90789416       7.67978331       8.74456104
F       38.42946430       7.67977517      14.05372897
C       42.12486223       8.95973401      10.12128005
C       39.16870488       8.95972932      10.62412841
C       40.64665767       8.95973637      12.67717933
C       39.16862397       8.95973358      12.17419689
F       42.12498962       8.95973927       8.74463016
F       40.64655975       8.95973113      14.05379809
C       44.34195768      10.23968997      10.12134917
C       41.38580033      10.23968527      10.62419753
C       42.86375312      10.23969233      12.67724845
C       41.38571942      10.23968954      12.17426602
F       44.34208507      10.23969522       8.74469929
F       42.86365521      10.23968708      14.05386722
C       46.55905314      11.51964592      10.12141830
C       43.60289579      11.51964123      10.62426666
C       45.08084858      11.51964828      12.67731758
C       43.60281488      11.51964549      12.17433514
F       46.55918053      11.51965118       8.74476841
F       45.08075067      11.51964303      14.05393634
C       48.77614860      12.79960188      10.12148742
C       45.81999125      12.79959718      10.62433578
C       47.29794404      12.79960424      12.67738670
C       45.81991034      12.79960145      12.17440427
F       48.77627599      12.79960713       8.74483754
F       47.29784612      12.79959899      14.05400547
C       50.99324405      14.07955783      10.12155655
C       48.03708670      14.07955314      10.62440491
C       49.51503949      14.07956019      12.67745583
C       48.03700579      14.07955740      12.17447339
F       50.99337144      14.07956309       8.74490666
F       49.51494158      14.07955494      14.05407459
C       53.21033951      15.35951379      10.12162567
C       50.25418216      15.35950909      10.62447403
C       51.73213495      15.35951615      12.67752495
C       50.25410125      15.35951336      12.17454252
F       53.21046690      15.35951904       8.74497578
F       51.73203704      15.35951090      14.05414372
C       55.42743497      16.63946974      10.12169480
C       52.47127762      16.63946505      10.62454316
C       53.94923041      16.63947210      12.67759408
C       52.47119671      16.63946931      12.17461164
F       55.42756236      16.63947500       8.74504491
F       53.94913249      16.63946685      14.05421284
C       57.64453042      17.91942570      10.12176392
C       54.68837308      17.91942100      10.62461228
C       56.16632586      17.91942806      12.67766320
C       54.68829216      17.91942526      12.17468077
F       57.64465781      17.91943095       8.74511403
F       56.16622795      17.91942281      14.05428197
C       59.86162588      19.19938165      10.12183305
C       56.90546853      19.19937696      10.62468140
C       58.38342132      19.19938401      12.67773233
C       56.90538762      19.19938122      12.17474989
F       59.86175327      19.19938691       8.74518316
F       58.38332341      19.19937876      14.05435109
C       62.07872134      20.47933761      10.12190217
C       59.12256399      20.47933291      10.62475053
C       60.60051678      20.47933996      12.67780145
C       59.12248308      20.47933717      12.17481901
F       62.07884873      20.47934286       8.74525228
F       60.60041886      20.47933472      14.05442022
C       64.29581680      21.75929356      10.12197130
C       61.33965945      21.75928887      10.62481965
C       62.81761223      21.75929592      12.67787058
C       61.33957853      21.75929313      12.17488814
F       64.29594418      21.75929882       8.74532141
F       62.81751432      21.75929067      14.05448934
C       66.51291225      23.03924951      10.12204042
C       63.55675490      23.03924482      10.62488878
C       65.03470769      23.03925187      12.67793970
C       63.55667399      23.03924908      12.17495726
F       66.51303964      23.03925477       8.74539053
F       65.03460978      23.03924663      14.05455846
C       68.73000771      24.31920547      10.12210955
C       65.77385036      24.31920078      10.62495790
C       67.25180315      24.31920783      12.67800883
C       65.77376945      24.31920504      12.17502639
F       68.73013510      24.31921073       8.74545966
F       67.25170524      24.31920258      14.05462759
C       70.94710317      25.59916142      10.12217867
C       67.99094582      25.59915673      10.62502703
C       69.46889860      25.59916378      12.67807795
C       67.99086491      25.59916099      12.17509551
F       70.94723055      25.59916668       8.74552878
F       69.46880069      25.59915854      14.05469671
C       73.16419862      26.87911738      10.12224779
C       70.20804127      26.87911269      10.62509615
C       71.68599406      26.87911974      12.67814708
C       70.20796036      26.87911695      12.17516464
F       73.16432601      26.87912263       8.74559791
F       71.68589615      26.87911449      14.05476584
C       75.38129408      28.15907333      10.12231692
C       72.42513673      28.15906864      10.62516528
C       73.90308952      28.15907569      12.67821620
C       72.42505582      28.15907290      12.17523376
F       75.38142147      28.15907859       8.74566703
F       73.90299161      28.15907045      14.05483496
C       77.59838954      29.43902929      10.12238604
C       74.64223219      29.43902460      10.62523440
C       76.12018498      29.43903165      12.67828533
C       74.64215128      29.43902886      12.17530289
F       77.59851693      29.43903454       8.74573616
F       76.12008706      29.43902640      14.05490409
C       79.81548499      30.71898524      10.12245517
C       76.85932764      30.71898055      10.62530353
C       78.33728043      30.71898760      12.67835445
C       76.85924673      30.71898481      12.17537201
F       79.81561238      30.71899050       8.74580528
F       78.33718252      30.71898236      14.05497321
C       82.03258045      31.99894120      10.12252429
C       79.07642310      31.99893650      10.62537265
C       80.55437589      31.99894356      12.67842357
C       79.07634219      31.99894077      12.17544114
F       82.03270784      31.99894645       8.74587441
F       80.55427798      31.99893831      14.05504234
C       84.24967591      33.27889715      10.12259342
C       81.29351856      33.27889246      10.62544178
C       82.77147135      33.27889951      12.67849270
C       81.29343765      33.27889672      12.17551026
F       84.24980330      33.27890241       8.74594353
F       82.77137343      33.27889426      14.05511146
C       86.46677136      34.55885311      10.12266254
C       83.51061401      34.55884841      10.62551090
C       84.98856680      34.55885547      12.67856182
C       83.51053310      34.55885268      12.17557939
F       86.46689875      34.55885836       8.74601266
F       84.98846889      34.55885022      14.05518059
C       88.68386682      35.83880906      10.12273167
C       85.72770947      35.83880437      10.62558003
C       87.20566226      35.83881142      12.67863095
C       85.72762856      35.83880863      12.17564851
F       88.68399421      35.83881432       8.74608178
F       87.20556435      35.83880617      14.05524971
C       17.73680881      -7.67968592      10.12051912
C       14.78065146      -7.67969062      10.62336748
C       16.25860425      -7.67968356      12.67641841
C       14.78057055      -7.67968635      12.17343597
F       17.73693620      -7.67968067       8.74386924
F       16.25850633      -7.67968881      14.05303717
C       19.95390426      -6.39972997      10.12058825
C       16.99774692      -6.39973466      10.62343661
C       18.47569970      -6.39972761      12.67648753
C       16.99766600      -6.39973040      12.17350509
F       19.95403165      -6.39972471       8.74393836
F       18.47560179      -6.39973286      14.05310629
C       22.17099972      -5.11977401      10.12065737
C       19.21484237      -5.11977871      10.62350573
C       20.69279516      -5.11977165      12.67655665
C       19.21476146      -5.11977444      12.17357422
F       22.17112711      -5.11976876       8.74400749
F       20.69269725      -5.11977690      14.05317542
C       24.38809518      -3.83981806      10.12072650
C       21.43193783      -3.83982275      10.62357486
C       22.90989062      -3.83981570      12.67662578
C       21.43185692      -3.83981849      12.17364334
F       24.38822257      -3.83981280       8.74407661
F       22.90979270      -3.83982095      14.05324454
C       26.60519064      -2.55986210      10.12079562
C       23.64903329      -2.55986680      10.62364398
C       25.12698607      -2.55985974      12.67669490
C       23.64895237      -2.55986254      12.17371247
F       26.60531802      -2.55985685       8.74414574
F       25.12688816      -2.55986499      14.05331367
C       28.82228609      -1.27990615      10.12086475
C       25.86612874      -1.27991084      10.62371311
C       27.34408153      -1.27990379      12.67676403
C       25.86604783      -1.27990658      12.17378159
F       28.82241348      -1.27990089       8.74421486
F       27.34398362      -1.27990904      14.05338279
C       31.03938155       0.00004981      10.12093387
C       28.08322420       0.00004511      10.62378223
C       29.56117699       0.00005216      12.67683315
C       28.08314329       0.00004937      12.17385072
F       31.03950894       0.00005506       8.74428398
F       29.56107908       0.00004692      14.05345192
C       33.25647701       1.28000576      10.12100300
C       30.30031966       1.28000107      10.62385136
C       31.77827244       1.28000812      12.67690228
C       30.30023875       1.28000533      12.17391984
F       33.25660439       1.28001102       8.74435311
F       31.77817453       1.28000287      14.05352104
C       35.47357246       2.55996171      10.12107212
C       32.51741511       2.55995702      10.62392048
C       33.99536790       2.55996407      12.67697140
C       32.51733420       2.55996128      12.17398897
F       35.47369985       2.55996697       8.74442223
F       33.99526999       2.55995883      14.05359017
C       37.69066792       3.83991767      10.12114125
C       34.73451057       3.83991298      10.62398960
C       36.21246336       3.83992003      12.67704053
C       34.73442966       3.83991724      12.17405809
F       37.69079531       3.83992293       8.74449136
F       36.21236545       3.83991478      14.05365929
C       39.90776338       5.11987362      10.12121037
C       36.95160603       5.11986893      10.62405873
C       38.42955882       5.11987598      12.67710965
C       36.95152512       5.11987319      12.17412721
F       39.90789077       5.11987888       8.74456048
F       38.42946090       5.11987074      14.05372842
C       42.12485883       6.39982958      10.12127950
C       39.16870148       6.39982489      10.62412785
C       40.64665427       6.39983194      12.67717878
C       39.16862057       6.39982915      12.17419634
F       42.12498622       6.39983483       8.74462961
F       40.64655636       6.39982669      14.05379754
C       44.34195429       7.67978553      10.12134862
C       41.38579694       7.67978084      10.62419698
C       42.86374973       7.67978789      12.67724790
C       41.38571603       7.67978510      12.17426546
F       44.34208168       7.67979079       8.74469873
F       42.86365182       7.67978265      14.05386666
C       46.55904975       8.95974149      10.12141775
C       43.60289240       8.95973680      10.62426610
C       45.08084519       8.95974385      12.67731703
C       43.60281149       8.95974106      12.17433459
F       46.55917714       8.95974674       8.74476786
F       45.08074727       8.95973860      14.05393579
C       48.77614520      10.23969744      10.12148687
C       45.81998785      10.23969275      10.62433523
C       47.29794064      10.23969980      12.67738615
C       45.81990694      10.23969701      12.17440371
F       48.77627259      10.23970270       8.74483698
F       47.29784273      10.23969456      14.05400491
C       50.99324066      11.51965340      10.12155599
C       48.03708331      11.51964870      10.62440435
C       49.51503610      11.51965576      12.67745528
C       48.03700240      11.51965297      12.17447284
F       50.99336805      11.51965865       8.74490611
F       49.51493819      11.51965051      14.05407404
C       53.21033612      12.79960935      10.12162512
C       50.25417877      12.79960466      10.62447348
C       51.73213156      12.79961171      12.67752440
C       50.25409786      12.79960892      12.17454196
F       53.21046351      12.79961461       8.74497523
F       51.73203364      12.79960647      14.05414316
C       55.42743157      14.07956531      10.12169424
C       52.47127423      14.07956061      10.62454260
C       53.94922701      14.07956767      12.67759353
C       52.47119331      14.07956488      12.17461109
F       55.42755896      14.07957056       8.74504436
F       53.94912910      14.07956242      14.05421229
C       57.64452703      15.35952126      10.12176337
C       54.68836968      15.35951657      10.62461173
C       56.16632247      15.35952362      12.67766265
C       54.68828877      15.35952083      12.17468021
F       57.64465442      15.35952652       8.74511348
F       56.16622456      15.35951837      14.05428141
C       59.86162249      16.63947722      10.12183249
C       56.90546514      16.63947252      10.62468085
C       58.38341793      16.63947958      12.67773177
C       56.90538423      16.63947679      12.17474934
F       59.86174988      16.63948247       8.74518261
F       58.38332001      16.63947433      14.05435054
C       62.07871795      17.91943317      10.12190162
C       59.12256060      17.91942848      10.62474998
C       60.60051338      17.91943553      12.67780090
C       59.12247968      17.91943274      12.17481846
F       62.07884533      17.91943843       8.74525173
F       60.60041547      17.91943028      14.05441966
C       64.29581340      19.19938913      10.12197074
C       61.33965605      19.19938443      10.62481910
C       62.81760884      19.19939149      12.67787002
C       61.33957514      19.19938870      12.17488759
F       64.29594079      19.19939438       8.74532086
F       62.81751093      19.19938624      14.05448879
C       66.51290886      20.47934508      10.12203987
C       63.55675151      20.47934039      10.62488823
C       65.03470430      20.47934744      12.67793915
C       63.55667060      20.47934465      12.17495671
F       66.51303625      20.47935034       8.74538998
F       65.03460639      20.47934219      14.05455791
C       68.73000432      21.75930104      10.12210899
C       65.77384697      21.75929634      10.62495735
C       67.25179975      21.75930340      12.67800827
C       65.77376606      21.75930060      12.17502584
F       68.73013170      21.75930629       8.74545910
F       67.25170184      21.75929815      14.05462704
C       70.94709977      23.03925699      10.12217812
C       67.99094242      23.03925230      10.62502647
C       69.46889521      23.03925935      12.67807740
C       67.99086151      23.03925656      12.17509496
F       70.94722716      23.03926225       8.74552823
F       69.46879730      23.03925410      14.05469616
C       73.16419523      24.31921295      10.12224724
C       70.20803788      24.31920825      10.62509560
C       71.68599067      24.31921530      12.67814652
C       70.20795697      24.31921251      12.17516408
F       73.16432262      24.31921820       8.74559735
F       71.68589276      24.31921006      14.05476529
C       75.38129069      25.59916890      10.12231637
C       72.42513334      25.59916421      10.62516472
C       73.90308613      25.59917126      12.67821565
C       72.42505243      25.59916847      12.17523321
F       75.38141808      25.59917416       8.74566648
F       73.90298821      25.59916601      14.05483441
C       77.59838614      26.87912485      10.12238549
C       74.64222879      26.87912016      10.62523385
C       76.12018158      26.87912721      12.67828477
C       74.64214788      26.87912442      12.17530233
F       77.59851353      26.87913011       8.74573560
F       76.12008367      26.87912197      14.05490353
C       79.81548160      28.15908081      10.12245462
C       76.85932425      28.15907612      10.62530297
C       78.33727704      28.15908317      12.67835390
C       76.85924334      28.15908038      12.17537146
F       79.81560899      28.15908607       8.74580473
F       78.33717913      28.15907792      14.05497266
C       82.03257706      29.43903676      10.12252374
C       79.07641971      29.43903207      10.62537210
C       80.55437250      29.43903912      12.67842302
C       79.07633880      29.43903633      12.17544058
F       82.03270445      29.43904202       8.74587385
F       80.55427458      29.43903388      14.05504178
C       84.24967251      30.71899272      10.12259286
C       81.29351516      30.71898803      10.62544122
C       82.77146795      30.71899508      12.67849215
C       81.29343425      30.71899229      12.17550971
F       84.24979990      30.71899797       8.74594298
F       82.77137004      30.71898983      14.05511091
C       86.46676797      31.99894867      10.12266199
C       83.51061062      31.99894398      10.62551035
C       84.98856341      31.99895103      12.67856127
C       83.51052971      31.99894824      12.17557883
F       86.46689536      31.99895393       8.74601210
F       84.98846550      31.99894579      14.05518003
C       88.68386343      33.27890463      10.12273111
C       85.72770608      33.27889994      10.62557947
C       87.20565887      33.27890699      12.67863040
C       85.72762517      33.27890420      12.17564796
F       88.68399082      33.27890988       8.74608123
F       87.20556095      33.27890174      14.05524916
C       90.90095888      34.55886058      10.12280024
C       87.94480154      34.55885589      10.62564860
C       89.42275432      34.55886294      12.67869952
C       87.94472062      34.55886015      12.17571708
F       90.90108627      34.55886584       8.74615035
F       89.42265641      34.55885770      14.05531828
C       19.95390087      -8.95963440      10.12058770
C       16.99774352      -8.95963910      10.62343605
C       18.47569631      -8.95963204      12.67648698
C       16.99766261      -8.95963483      12.17350454
F       19.95402826      -8.95962915       8.74393781
F       18.47559840      -8.95963729      14.05310574
C       22.17099633      -7.67967845      10.12065682
C       19.21483898      -7.67968314      10.62350518
C       20.69279177      -7.67967609      12.67655610
C       19.21475807      -7.67967888      12.17357366
F       22.17112372      -7.67967319       8.74400693
F       20.69269385      -7.67968133      14.05317486
C       24.38809179      -6.39972249      10.12072595
C       21.43193444      -6.39972719      10.62357430
C       22.90988722      -6.39972013      12.67662523
C       21.43185352      -6.39972292      12.17364279
F       24.38821917      -6.39971724       8.74407606
F       22.90978931      -6.39972538      14.05324399
C       26.60518724      -5.11976654      10.12079507
C       23.64902989      -5.11977123      10.62364343
C       25.12698268      -5.11976418      12.67669435
C       23.64894898      -5.11976697      12.17371191
F       26.60531463      -5.11976128       8.74414518
F       25.12688477      -5.11976943      14.05331311
C       28.82228270      -3.83981058      10.12086419
C       25.86612535      -3.83981528      10.62371255
C       27.34407814      -3.83980822      12.67676348
C       25.86604444      -3.83981101      12.17378104
F       28.82241009      -3.83980533       8.74421431
F       27.34398023      -3.83981347      14.05338224
C       31.03937816      -2.55985463      10.12093332
C       28.08322081      -2.55985932      10.62378168
C       29.56117360      -2.55985227      12.67683260
C       28.08313990      -2.55985506      12.17385016
F       31.03950554      -2.55984937       8.74428343
F       29.56107568      -2.55985752      14.05345136
C       33.25647361      -1.27989867      10.12100244
C       30.30031626      -1.27990337      10.62385080
C       31.77826905      -1.27989631      12.67690173
C       30.30023535      -1.27989910      12.17391929
F       33.25660100      -1.27989342       8.74435256
F       31.77817114      -1.27990156      14.05352049
C       35.47356907       0.00005728      10.12107157
C       32.51741172       0.00005259      10.62391993
C       33.99536451       0.00005964      12.67697085
C       32.51733081       0.00005685      12.17398841
F       35.47369646       0.00006254       8.74442168
F       33.99526660       0.00005439      14.05358961
C       37.69066453       1.28001324      10.12114069
C       34.73450718       1.28000854      10.62398905
C       36.21245997       1.28001560      12.67703997
C       34.73442627       1.28001280      12.17405754
F       37.69079192       1.28001849       8.74449081
F       36.21236205       1.28001035      14.05365874
C       39.90775998       2.55996919      10.12120982
C       36.95160263       2.55996450      10.62405818
C       38.42955542       2.55997155      12.67710910
C       36.95152172       2.55996876      12.17412666
F       39.90788737       2.55997445       8.74455993
F       38.42945751       2.55996630      14.05372786
C       42.12485544       3.83992515      10.12127894
C       39.16869809       3.83992045      10.62412730
C       40.64665088       3.83992750      12.67717822
C       39.16861718       3.83992471      12.17419579
F       42.12498283       3.83993040       8.74462906
F       40.64655297       3.83992226      14.05379699
C       44.34195090       5.11988110      10.12134807
C       41.38579355       5.11987641      10.62419643
C       42.86374634       5.11988346      12.67724735
C       41.38571264       5.11988067      12.17426491
F       44.34207829       5.11988636       8.74469818
F       42.86364842       5.11987821      14.05386611
C       46.55904635       6.39983705      10.12141719
C       43.60288900       6.39983236      10.62426555
C       45.08084179       6.39983941      12.67731647
C       43.60280809       6.39983662      12.17433404
F       46.55917374       6.39984231       8.74476730
F       45.08074388       6.39983417      14.05393524
C       48.77614181       7.67979301      10.12148632
C       45.81998446       7.67978832      10.62433467
C       47.29793725       7.67979537      12.67738560
C       45.81990355       7.67979258      12.17440316
F       48.77626920       7.67979827       8.74483643
F       47.29783934       7.67979012      14.05400436
C       50.99323727       8.95974896      10.12155544
C       48.03707992       8.95974427      10.62440380
C       49.51503271       8.95975132      12.67745472
C       48.03699901       8.95974853      12.17447228
F       50.99336466       8.95975422       8.74490555
F       49.51493479       8.95974608      14.05407349
C       53.21033272      10.23970492      10.12162457
C       50.25417538      10.23970023      10.62447292
C       51.73212816      10.23970728      12.67752385
C       50.25409446      10.23970449      12.17454141
F       53.21046011      10.23971017       8.74497468
F       51.73203025      10.23970203      14.05414261
C       55.42742818      11.51966087      10.12169369
C       52.47127083      11.51965618      10.62454205
C       53.94922362      11.51966323      12.67759297
C       52.47118992      11.51966044      12.17461053
F       55.42755557      11.51966613       8.74504380
F       53.94912571      11.51965799      14.05421173
C       57.64452364      12.79961683      10.12176282
C       54.68836629      12.79961214      10.62461117
C       56.16631908      12.79961919      12.67766210
C       54.68828538      12.79961640      12.17467966
F       57.64465103      12.79962208       8.74511293
F       56.16622116      12.79961394      14.05428086
C       59.86161910      14.07957278      10.12183194
C       56.90546175      14.07956809      10.62468030
C       58.38341453      14.07957514      12.67773122
C       56.90538083      14.07957235      12.17474878
F       59.86174648      14.07957804       8.74518205
F       58.38331662      14.07956990      14.05434998
C       62.07871455      15.35952874      10.12190107
C       59.12255720      15.35952404      10.62474942
C       60.60050999      15.35953110      12.67780035
C       59.12247629      15.35952831      12.17481791
F       62.07884194      15.35953399       8.74525118
F       60.60041208      15.35952585      14.05441911
C       64.29581001      16.63948469      10.12197019
C       61.33965266      16.63948000      10.62481855
C       62.81760545      16.63948705      12.67786947
C       61.33957175      16.63948426      12.17488703
F       64.29593740      16.63948995       8.74532030
F       62.81750754      16.63948181      14.05448823
C       66.51290547      17.91944065      10.12203931
C       63.55674812      17.91943595      10.62488767
C       65.03470090      17.91944301      12.67793860
C       63.55666721      17.91944022      12.17495616
F       66.51303285      17.91944590       8.74538943
F       65.03460299      17.91943776      14.05455736
C       68.73000092      19.19939660      10.12210844
C       65.77384357      19.19939191      10.62495680
C       67.25179636      19.19939896      12.67800772
C       65.77376266      19.19939617      12.17502528
F       68.73012831      19.19940186       8.74545855
F       67.25169845      19.19939371      14.05462648
C       70.94709638      20.47935256      10.12217756
C       67.99093903      20.47934786      10.62502592
C       69.46889182      20.47935492      12.67807684
C       67.99085812      20.47935213      12.17509441
F       70.94722377      20.47935781       8.74552768
F       69.46879391      20.47934967      14.05469561
C       73.16419184      21.75930851      10.12224669
C       70.20803449      21.75930382      10.62509505
C       71.68598728      21.75931087      12.67814597
C       70.20795358      21.75930808      12.17516353
F       73.16431923      21.75931377       8.74559680
F       71.68588936      21.75930562      14.05476473
C       75.38128729      23.03926447      10.12231581
C       72.42512994      23.03925977      10.62516417
C       73.90308273      23.03926683      12.67821509
C       72.42504903      23.03926403      12.17523266
F       75.38141468      23.03926972       8.74566593
F       73.90298482      23.03926158      14.05483386
C       77.59838275      24.31922042      10.12238494
C       74.64222540      24.31921573      10.62523330
C       76.12017819      24.31922278      12.67828422
C       74.64214449      24.31921999      12.17530178
F       77.59851014      24.31922568       8.74573505
F       76.12008028      24.31921753      14.05490298
C       79.81547821      25.59917638      10.12245406
C       76.85932086      25.59917168      10.62530242
C       78.33727365      25.59917873      12.67835334
C       76.85923995      25.59917594      12.17537091
F       79.81560560      25.59918163       8.74580417
F       78.33717573      25.59917349      14.05497211
C       82.03257366      26.87913233      10.12252319
C       79.07641631      26.87912764      10.62537154
C       80.55436910      26.87913469      12.67842247
C       79.07633540      26.87913190      12.17544003
F       82.03270105      26.87913759       8.74587330
F       80.55427119      26.87912944      14.05504123
C       84.24966912      28.15908829      10.12259231
C       81.29351177      28.15908359      10.62544067
C       82.77146456      28.15909064      12.67849159
C       81.29343086      28.15908785      12.17550916
F       84.24979651      28.15909354       8.74594242
F       82.77136665      28.15908540      14.05511036
C       86.46676458      29.43904424      10.12266144
C       83.51060723      29.43903955      10.62550979
C       84.98856002      29.43904660      12.67856072
C       83.51052632      29.43904381      12.17557828
F       86.46689197      29.43904950       8.74601155
F       84.98846210      29.43904135      14.05517948
C       88.68386003      30.71900019      10.12273056
C       85.72770269      30.71899550      10.62557892
C       87.20565547      30.71900255      12.67862984
C       85.72762177      30.71899976      12.17564740
F       88.68398742      30.71900545       8.74608067
F       87.20555756      30.71899731      14.05524861
C       90.90095549      31.99895615      10.12279969
C       87.94479814      31.99895146      10.62564804
C       89.42275093      31.99895851      12.67869897
C       87.94471723      31.99895572      12.17571653
F       90.90108288      31.99896141       8.74614980
F       89.42265302      31.99895326      14.05531773
C       93.11805095      33.27891210      10.12286881
C       90.16189360      33.27890741      10.62571717
C       91.63984639      33.27891446      12.67876809
C       90.16181269      33.27891167      12.17578565
F       93.11817834      33.27891736       8.74621892
F       91.63974847      33.27890922      14.05538685
C       22.17099294     -10.23958288      10.12065627
C       19.21483559     -10.23958757      10.62350463
C       20.69278837     -10.23958052      12.67655555
C       19.21475468     -10.23958331      12.17357311
F       22.17112032     -10.23957762       8.74400638
F       20.69269046     -10.23958577      14.05317431
C       24.38808839      -8.95962693      10.12072539
C       21.43193104      -8.95963162      10.62357375
C       22.90988383      -8.95962457      12.67662467
C       21.43185013      -8.95962736      12.17364224
F       24.38821578      -8.95962167       8.74407550
F       22.90978592      -8.95962981      14.05324344
C       26.60518385      -7.67967097      10.12079452
C       23.64902650      -7.67967566      10.62364287
C       25.12697929      -7.67966861      12.67669380
C       23.64894559      -7.67967140      12.17371136
F       26.60531124      -7.67966572       8.74414463
F       25.12688138      -7.67967386      14.05331256
C       28.82227931      -6.39971502      10.12086364
C       25.86612196      -6.39971971      10.62371200
C       27.34407475      -6.39971266      12.67676292
C       25.86604105      -6.39971545      12.17378049
F       28.82240669      -6.39970976       8.74421375
F       27.34397683      -6.39971790      14.05338169
C       31.03937476      -5.11975906      10.12093277
C       28.08321741      -5.11976376      10.62378112
C       29.56117020      -5.11975670      12.67683205
C       28.08313650      -5.11975949      12.17384961
F       31.03950215      -5.11975381       8.74428288
F       29.56107229      -5.11976195      14.05345081
C       33.25647022      -3.83980311      10.12100189
C       30.30031287      -3.83980780      10.62385025
C       31.77826566      -3.83980075      12.67690117
C       30.30023196      -3.83980354      12.17391873
F       33.25659761      -3.83979785       8.74435200
F       31.77816775      -3.83980599      14.05351994
C       35.47356568      -2.55984715      10.12107102
C       32.51740833      -2.55985185      10.62391937
C       33.99536112      -2.55984479      12.67697030
C       32.51732742      -2.55984758      12.17398786
F       35.47369307      -2.55984190       8.74442113
F       33.99526320      -2.55985004      14.05358906
C       37.69066113      -1.27989120      10.12114014
C       34.73450378      -1.27989589      10.62398850
C       36.21245657      -1.27988884      12.67703942
C       34.73442287      -1.27989163      12.17405698
F       37.69078852      -1.27988594       8.74449025
F       36.21235866      -1.27989409      14.05365818
C       39.90775659       0.00006476      10.12120927
C       36.95159924       0.00006006      10.62405762
C       38.42955203       0.00006712      12.67710855
C       36.95151833       0.00006433      12.17412611
F       39.90788398       0.00007001       8.74455938
F       38.42945412       0.00006187      14.05372731
C       42.12485205       1.28002071      10.12127839
C       39.16869470       1.28001602      10.62412675
C       40.64664749       1.28002307      12.67717767
C       39.16861379       1.28002028      12.17419523
F       42.12497944       1.28002597       8.74462850
F       40.64654957       1.28001782      14.05379643
C       44.34194750       2.55997667      10.12134751
C       41.38579016       2.55997197      10.62419587
C       42.86374294       2.55997903      12.67724680
C       41.38570924       2.55997624      12.17426436
F       44.34207489       2.55998192       8.74469763
F       42.86364503       2.55997378      14.05386556
C       46.55904296       3.83993262      10.12141664
C       43.60288561       3.83992793      10.62426500
C       45.08083840       3.83993498      12.67731592
C       43.60280470       3.83993219      12.17433348
F       46.55917035       3.83993788       8.74476675
F       45.08074049       3.83992973      14.05393468
C       48.77613842       5.11988858      10.12148576
C       45.81998107       5.11988388      10.62433412
C       47.29793386       5.11989094      12.67738504
C       45.81990016       5.11988814      12.17440261
F       48.77626581       5.11989383       8.74483588
F       47.29783594       5.11988569      14.05400381
C       50.99323388       6.39984453      10.12155489
C       48.03707653       6.39983984      10.62440325
C       49.51502931       6.39984689      12.67745417
C       48.03699561       6.39984410      12.17447173
F       50.99336126       6.39984979       8.74490500
F       49.51493140       6.39984164      14.05407293
C       53.21032933       7.67980049      10.12162401
C       50.25417198       7.67979579      10.62447237
C       51.73212477       7.67980284      12.67752329
C       50.25409107       7.67980005      12.17454086
F       53.21045672       7.67980574       8.74497413
F       51.73202686       7.67979760      14.05414206
C       55.42742479       8.95975644      10.12169314
C       52.47126744       8.95975175      10.62454150
C       53.94922023       8.95975880      12.67759242
C       52.47118653       8.95975601      12.17460998
F       55.42755218       8.95976170       8.74504325
F       53.94912232       8.95975355      14.05421118
C       57.64452025      10.23971239      10.12176226
C       54.68836290      10.23970770      10.62461062
C       56.16631568      10.23971475      12.67766154
C       54.68828199      10.23971196      12.17467911
F       57.64464763      10.23971765       8.74511237
F       56.16621777      10.23970951      14.05428031
C       59.86161570      11.51966835      10.12183139
C       56.90545835      11.51966366      10.62467974
C       58.38341114      11.51967071      12.67773067
C       56.90537744      11.51966792      12.17474823
F       59.86174309      11.51967361       8.74518150
F       58.38331323      11.51966546      14.05434943
C       62.07871116      12.79962430      10.12190051
C       59.12255381      12.79961961      10.62474887
C       60.60050660      12.79962666      12.67779979
C       59.12247290      12.79962387      12.17481736
F       62.07883855      12.79962956       8.74525062
F       60.60040869      12.79962142      14.05441856
C       64.29580662      14.07958026      10.12196964
C       61.33964927      14.07957557      10.62481799
C       62.81760206      14.07958262      12.67786892
C       61.33956836      14.07957983      12.17488648
F       64.29593400      14.07958551       8.74531975
F       62.81750414      14.07957737      14.05448768
C       66.51290207      15.35953621      10.12203876
C       63.55674472      15.35953152      10.62488712
C       65.03469751      15.35953857      12.67793804
C       63.55666381      15.35953578      12.17495560
F       66.51302946      15.35954147       8.74538887
F       65.03459960      15.35953333      14.05455681
C       68.72999753      16.63949217      10.12210789
C       65.77384018      16.63948748      10.62495624
C       67.25179297      16.63949453      12.67800717
C       65.77375927      16.63949174      12.17502473
F       68.73012492      16.63949742       8.74545800
F       67.25169506      16.63948928      14.05462593
C       70.94709299      17.91944812      10.12217701
C       67.99093564      17.91944343      10.62502537
C       69.46888843      17.91945048      12.67807629
C       67.99085473      17.91944769      12.17509385
F       70.94722038      17.91945338       8.74552712
F       69.46879051      17.91944524      14.05469505
C       73.16418844      19.19940408      10.12224614
C       70.20803109      19.19939938      10.62509449
C       71.68598388      19.19940644      12.67814542
C       70.20795018      19.19940365      12.17516298
F       73.16431583      19.19940933       8.74559625
F       71.68588597      19.19940119      14.05476418
C       75.38128390      20.47936003      10.12231526
C       72.42512655      20.47935534      10.62516362
C       73.90307934      20.47936239      12.67821454
C       72.42504564      20.47935960      12.17523210
F       75.38141129      20.47936529       8.74566537
F       73.90298143      20.47935714      14.05483330
C       77.59837936      21.75931599      10.12238438
C       74.64222201      21.75931129      10.62523274
C       76.12017480      21.75931835      12.67828367
C       74.64214110      21.75931556      12.17530123
F       77.59850675      21.75932124       8.74573450
F       76.12007688      21.75931310      14.05490243
C       79.81547481      23.03927194      10.12245351
C       76.85931746      23.03926725      10.62530187
C       78.33727025      23.03927430      12.67835279
C       76.85923655      23.03927151      12.17537035
F       79.81560220      23.03927720       8.74580362
F       78.33717234      23.03926905      14.05497155
C       82.03257027      24.31922790      10.12252263
C       79.07641292      24.31922320      10.62537099
C       80.55436571      24.31923026      12.67842191
C       79.07633201      24.31922747      12.17543948
F       82.03269766      24.31923315       8.74587275
F       80.55426780      24.31922501      14.05504068
C       84.24966573      25.59918385      10.12259176
C       81.29350838      25.59917916      10.62544012
C       82.77146117      25.59918621      12.67849104
C       81.29342747      25.59918342      12.17550860
F       84.24979312      25.59918911       8.74594187
F       82.77136325      25.59918096      14.05510980
C       86.46676118      26.87913981      10.12266088
C       83.51060384      26.87913511      10.62550924
C       84.98855662      26.87914217      12.67856016
C       83.51052292      26.87913937      12.17557773
F       86.46688857      26.87914506       8.74601100
F       84.98845871      26.87913692      14.05517893
C       88.68385664      28.15909576      10.12273001
C       85.72769929      28.15909107      10.62557837
C       87.20565208      28.15909812      12.67862929
C       85.72761838      28.15909533      12.17564685
F       88.68398403      28.15910102       8.74608012
F       87.20555417      28.15909287      14.05524805
C       90.90095210      29.43905172      10.12279913
C       87.94479475      29.43904702      10.62564749
C       89.42274754      29.43905407      12.67869841
C       87.94471384      29.43905128      12.17571598
F       90.90107949      29.43905697       8.74614924
F       89.42264962      29.43904883      14.05531718
C       93.11804756      30.71900767      10.12286826
C       90.16189021      30.71900298      10.62571662
C       91.63984299      30.71901003      12.67876754
C       90.16180929      30.71900724      12.17578510
F       93.11817494      30.71901293       8.74621837
F       91.63974508      30.71900478      14.05538630
C       95.33514301      31.99896363      10.12293738
C       92.37898566      31.99895893      10.62578574
C       93.85693845      31.99896598      12.67883666
C       92.37890475      31.99896319      12.17585423
F       95.33527040      31.99896888       8.74628749
F       93.85684054      31.99896074      14.05545543
C       24.38808500     -11.51953136      10.12072484
C       21.43192765     -11.51953605      10.62357320
C       22.90988044     -11.51952900      12.67662412
C       21.43184674     -11.51953179      12.17364168
F       24.38821239     -11.51952610       8.74407495
F       22.90978253     -11.51953425      14.05324288
C       26.60518046     -10.23957541      10.12079396
C       23.64902311     -10.23958010      10.62364232
C       25.12697590     -10.23957305      12.67669324
C       23.64894220     -10.23957584      12.17371081
F       26.60530785     -10.23957015       8.74414408
F       25.12687798     -10.23957829      14.05331201
C       28.82227591      -8.95961945      10.12086309
C       25.86611856      -8.95962414      10.62371145
C       27.34407135      -8.95961709      12.67676237
C       25.86603765      -8.95961988      12.17377993
F       28.82240330      -8.95961419       8.74421320
F       27.34397344      -8.95962234      14.05338113
C       31.03937137      -7.67966350      10.12093221
C       28.08321402      -7.67966819      10.62378057
C       29.56116681      -7.67966114      12.67683149
C       28.08313311      -7.67966393      12.17384906
F       31.03949876      -7.67965824       8.74428233
F       29.56106890      -7.67966638      14.05345026
C       33.25646683      -6.39970754      10.12100134
C       30.30030948      -6.39971223      10.62384970
C       31.77826227      -6.39970518      12.67690062
C       30.30022857      -6.39970797      12.17391818
F       33.25659422      -6.39970229       8.74435145
F       31.77816435      -6.39971043      14.05351938
C       35.47356228      -5.11975159      10.12107046
C       32.51740493      -5.11975628      10.62391882
C       33.99535772      -5.11974923      12.67696974
C       32.51732402      -5.11975202      12.17398731
F       35.47368967      -5.11974633       8.74442057
F       33.99525981      -5.11975447      14.05358851
C       37.69065774      -3.83979563      10.12113959
C       34.73450039      -3.83980032      10.62398795
C       36.21245318      -3.83979327      12.67703887
C       34.73441948      -3.83979606      12.17405643
F       37.69078513      -3.83979038       8.74448970
F       36.21235527      -3.83979852      14.05365763
C       39.90775320      -2.55983968      10.12120871
C       36.95159585      -2.55984437      10.62405707
C       38.42954864      -2.55983732      12.67710799
C       36.95151494      -2.55984011      12.17412556
F       39.90788059      -2.55983442       8.74455882
F       38.42945072      -2.55984256      14.05372676
C       42.12484865      -1.27988372      10.12127784
C       39.16869131      -1.27988842      10.62412619
C       40.64664409      -1.27988136      12.67717712
C       39.16861039      -1.27988415      12.17419468
F       42.12497604      -1.27987847       8.74462795
F       40.64654618      -1.27988661      14.05379588
C       44.34194411       0.00007223      10.12134696
C       41.38578676       0.00006754      10.62419532
C       42.86373955       0.00007459      12.67724624
C       41.38570585       0.00007180      12.17426380
F       44.34207150       0.00007749       8.74469707
F       42.86364164       0.00006935      14.05386501
C       46.55903957       1.28002819      10.12141609
C       43.60288222       1.28002349      10.62426444
C       45.08083501       1.28003055      12.67731537
C       43.60280131       1.28002776      12.17433293
F       46.55916696       1.28003344       8.74476620
F       45.08073709       1.28002530      14.05393413
C       48.77613503       2.55998414      10.12148521
C       45.81997768       2.55997945      10.62433357
C       47.29793046       2.55998650      12.67738449
C       45.81989676       2.55998371      12.17440205
F       48.77626241       2.55998940       8.74483532
F       47.29783255       2.55998125      14.05400325
C       50.99323048       3.83994010      10.12155434
C       48.03707313       3.83993540      10.62440269
C       49.51502592       3.83994246      12.67745362
C       48.03699222       3.83993967      12.17447118
F       50.99335787       3.83994535       8.74490445
F       49.51492801       3.83993721      14.05407238
C       53.21032594       5.11989605      10.12162346
C       50.25416859       5.11989136      10.62447182
C       51.73212138       5.11989841      12.67752274
C       50.25408768       5.11989562      12.17454030
F       53.21045333       5.11990131       8.74497357
F       51.73202347       5.11989316      14.05414150
C       55.42742140       6.39985201      10.12169258
C       52.47126405       6.39984731      10.62454094
C       53.94921683       6.39985437      12.67759187
C       52.47118314       6.39985158      12.17460943
F       55.42754878       6.39985726       8.74504270
F       53.94911892       6.39984912      14.05421063
C       57.64451685       7.67980796      10.12176171
C       54.68835950       7.67980327      10.62461007
C       56.16631229       7.67981032      12.67766099
C       54.68827859       7.67980753      12.17467855
F       57.64464424       7.67981322       8.74511182
F       56.16621438       7.67980507      14.05427975
C       59.86161231       8.95976392      10.12183083
C       56.90545496       8.95975922      10.62467919
C       58.38340775       8.95976628      12.67773012
C       56.90537405       8.95976348      12.17474768
F       59.86173970       8.95976917       8.74518095
F       58.38330984       8.95976103      14.05434888
C       62.07870777      10.23971987      10.12189996
C       59.12255042      10.23971518      10.62474832
C       60.60050321      10.23972223      12.67779924
C       59.12246951      10.23971944      12.17481680
F       62.07883516      10.23972513       8.74525007
F       60.60040529      10.23971698      14.05441800
C       64.29580322      11.51967583      10.12196908
C       61.33964587      11.51967113      10.62481744
C       62.81759866      11.51967818      12.67786836
C       61.33956496      11.51967539      12.17488593
F       64.29593061      11.51968108       8.74531920
F       62.81750075      11.51967294      14.05448713
C       66.51289868      12.79963178      10.12203821
C       63.55674133      12.79962709      10.62488657
C       65.03469412      12.79963414      12.67793749
C       63.55666042      12.79963135      12.17495505
F       66.51302607      12.79963704       8.74538832
F       65.03459621      12.79962889      14.05455625
C       68.72999414      14.07958773      10.12210733
C       65.77383679      14.07958304      10.62495569
C       67.25178958      14.07959009      12.67800661
C       65.77375588      14.07958730      12.17502418
F       68.73012153      14.07959299       8.74545745
F       67.25169166      14.07958485      14.05462538
C       70.94708959      15.35954369      10.12217646
C       67.99093224      15.35953900      10.62502482
C       69.46888503      15.35954605      12.67807574
C       67.99085133      15.35954326      12.17509330
F       70.94721698      15.35954895       8.74552657
F       69.46878712      15.35954080      14.05469450
C       73.16418505      16.63949964      10.12224558
C       70.20802770      16.63949495      10.62509394
C       71.68598049      16.63950200      12.67814486
C       70.20794679      16.63949921      12.17516243
F       73.16431244      16.63950490       8.74559569
F       71.68588258      16.63949676      14.05476363
C       75.38128051      17.91945560      10.12231471
C       72.42512316      17.91945091      10.62516306
C       73.90307595      17.91945796      12.67821399
C       72.42504225      17.91945517      12.17523155
F       75.38140790      17.91946085       8.74566482
F       73.90297803      17.91945271      14.05483275
C       77.59837596      19.19941155      10.12238383
C       74.64221862      19.19940686      10.62523219
C       76.12017140      19.19941391      12.67828311
C       74.64213770      19.19941112      12.17530067
F       77.59850335      19.19941681       8.74573394
F       76.12007349      19.19940867      14.05490188
C       79.81547142      20.47936751      10.12245296
C       76.85931407      20.47936282      10.62530131
C       78.33726686      20.47936987      12.67835224
C       76.85923316      20.47936708      12.17536980
F       79.81559881      20.47937276       8.74580307
F       78.33716895      20.47936462      14.05497100
C       82.03256688      21.75932346      10.12252208
C       79.07640953      21.75931877      10.62537044
C       80.55436232      21.75932582      12.67842136
C       79.07632862      21.75932303      12.17543892
F       82.03269427      21.75932872       8.74587219
F       80.55426440      21.75932058      14.05504012
C       84.24966234      23.03927942      10.12259121
C       81.29350499      23.03927472      10.62543956
C       82.77145777      23.03928178      12.67849049
C       81.29342407      23.03927899      12.17550805
F       84.24978972      23.03928467       8.74594132
F       82.77135986      23.03927653      14.05510925
C       86.46675779      24.31923537      10.12266033
C       83.51060044      24.31923068      10.62550869
C       84.98855323      24.31923773      12.67855961
C       83.51051953      24.31923494      12.17557717
F       86.46688518      24.31924063       8.74601044
F       84.98845532      24.31923248      14.05517837
C       88.68385325      25.59919133      10.12272945
C       85.72769590      25.59918663      10.62557781
C       87.20564869      25.59919369      12.67862874
C       85.72761499      25.59919090      12.17564630
F       88.68398064      25.59919658       8.74607957
F       87.20555078      25.59918844      14.05524750
C       90.90094871      26.87914728      10.12279858
C       87.94479136      26.87914259      10.62564694
C       89.42274414      26.87914964      12.67869786
C       87.94471045      26.87914685      12.17571542
F       90.90107609      26.87915254       8.74614869
F       89.42264623      26.87914439      14.05531662
C       93.11804416      28.15910324      10.12286770
C       90.16188681      28.15909854      10.62571606
C       91.63983960      28.15910560      12.67876699
C       90.16180590      28.15910281      12.17578455
F       93.11817155      28.15910849       8.74621782
F       91.63974169      28.15910035      14.05538575
C       95.33513962      29.43905919      10.12293683
C       92.37898227      29.43905450      10.62578519
C       93.85693506      29.43906155      12.67883611
C       92.37890136      29.43905876      12.17585367
F       95.33526701      29.43906445       8.74628694
F       93.85683715      29.43905630      14.05545487
C       97.55223508      30.71901515      10.12300595
C       94.59607773      30.71901045      10.62585431
C       96.07403052      30.71901751      12.67890523
C       94.59599682      30.71901471      12.17592280
F       97.55236246      30.71902040       8.74635607
F       96.07393260      30.71901226      14.05552400
C       26.60517706     -12.79947984      10.12079341
C       23.64901971     -12.79948453      10.62364177
C       25.12697250     -12.79947748      12.67669269
C       23.64893880     -12.79948027      12.17371025
F       26.60530445     -12.79947458       8.74414352
F       25.12687459     -12.79948273      14.05331145
C       28.82227252     -11.51952388      10.12086254
C       25.86611517     -11.51952858      10.62371089
C       27.34406796     -11.51952152      12.67676182
C       25.86603426     -11.51952432      12.17377938
F       28.82239991     -11.51951863       8.74421265
F       27.34397005     -11.51952677      14.05338058
C       31.03936798     -10.23956793      10.12093166
C       28.08321063     -10.23957262      10.62378002
C       29.56116342     -10.23956557      12.67683094
C       28.08312972     -10.23956836      12.17384850
F       31.03949537     -10.23956267       8.74428177
F       29.56106550     -10.23957082      14.05344970
C       33.25646343      -8.95961197      10.12100078
C       30.30030608      -8.95961667      10.62384914
C       31.77825887      -8.95960962      12.67690007
C       30.30022517      -8.95961241      12.17391763
F       33.25659082      -8.95960672       8.74435090
F       31.77816096      -8.95961486      14.05351883
C       35.47355889      -7.67965602      10.12106991
C       32.51740154      -7.67966071      10.62391827
C       33.99535433      -7.67965366      12.67696919
C       32.51732063      -7.67965645      12.17398675
F       35.47368628      -7.67965076       8.74442002
F       33.99525642      -7.67965891      14.05358795
C       37.69065435      -6.39970007      10.12113903
C       34.73449700      -6.39970476      10.62398739
C       36.21244979      -6.39969771      12.67703832
C       34.73441609      -6.39970050      12.17405588
F       37.69078174      -6.39969481       8.74448915
F       36.21235187      -6.39970295      14.05365708
C       39.90774980      -5.11974411      10.12120816
C       36.95159246      -5.11974880      10.62405652
C       38.42954524      -5.11974175      12.67710744
C       36.95151154      -5.11974454      12.17412500
F       39.90787719      -5.11973885       8.74455827
F       38.42944733      -5.11974700      14.05372620
C       42.12484526      -3.83978816      10.12127728
C       39.16868791      -3.83979285      10.62412564
C       40.64664070      -3.83978580      12.67717656
C       39.16860700      -3.83978859      12.17419413
F       42.12497265      -3.83978290       8.74462740
F       40.64654279      -3.83979104      14.05379533
C       44.34194072      -2.55983220      10.12134641
C       41.38578337      -2.55983689      10.62419477
C       42.86373616      -2.55982984      12.67724569
C       41.38570246      -2.55983263      12.17426325
F       44.34206811      -2.55982695       8.74469652
F       42.86363824      -2.55983509      14.05386445
C       46.55903618      -1.27987625      10.12141553
C       43.60287883      -1.27988094      10.62426389
C       45.08083161      -1.27987389      12.67731481
C       43.60279791      -1.27987668      12.17433238
F       46.55916356      -1.27987099       8.74476565
F       45.08073370      -1.27987913      14.05393358
C       48.77613163       0.00007971      10.12148466
C       45.81997428       0.00007502      10.62433302
C       47.29792707       0.00008207      12.67738394
C       45.81989337       0.00007928      12.17440150
F       48.77625902       0.00008496       8.74483477
F       47.29782916       0.00007682      14.05400270
C       50.99322709       1.28003566      10.12155378
C       48.03706974       1.28003097      10.62440214
C       49.51502253       1.28003802      12.67745306
C       48.03698883       1.28003523      12.17447063
F       50.99335448       1.28004092       8.74490389
F       49.51492462       1.28003278      14.05407183
C       53.21032255       2.55999162      10.12162291
C       50.25416520       2.55998692      10.62447126
C       51.73211798       2.55999398      12.67752219
C       50.25408429       2.55999119      12.17453975
F       53.21044993       2.55999687       8.74497302
F       51.73202007       2.55998873      14.05414095
C       55.42741800       3.83994757      10.12169203
C       52.47126065       3.83994288      10.62454039
C       53.94921344       3.83994993      12.67759131
C       52.47117974       3.83994714      12.17460887
F       55.42754539       3.83995283       8.74504214
F       53.94911553       3.83994469      14.05421008
C       57.64451346       5.11990353      10.12176116
C       54.68835611       5.11989883      10.62460951
C       56.16630890       5.11990589      12.67766044
C       54.68827520       5.11990310      12.17467800
F       57.64464085       5.11990878       8.74511127
F       56.16621099       5.11990064      14.05427920
C       59.86160892       6.39985948      10.12183028
C       56.90545157       6.39985479      10.62467864
C       58.38340436       6.39986184      12.67772956
C       56.90537066       6.39985905      12.17474712
F       59.86173631       6.39986474       8.74518039
F       58.38330644       6.39985659      14.05434832
C       62.07870437       7.67981544      10.12189941
C       59.12254702       7.67981074      10.62474776
C       60.60049981       7.67981780      12.67779869
C       59.12246611       7.67981501      12.17481625
F       62.07883176       7.67982069       8.74524952
F       60.60040190       7.67981255      14.05441745
C       64.29579983       8.95977139      10.12196853
C       61.33964248       8.95976670      10.62481689
C       62.81759527       8.95977375      12.67786781
C       61.33956157       8.95977096      12.17488537
F       64.29592722       8.95977665       8.74531864
F       62.81749736       8.95976850      14.05448657
C       66.51289529      10.23972735      10.12203765
C       63.55673794      10.23972265      10.62488601
C       65.03469073      10.23972971      12.67793694
C       63.55665703      10.23972691      12.17495450
F       66.51302268      10.23973260       8.74538777
F       65.03459281      10.23972446      14.05455570
C       68.72999074      11.51968330      10.12210678
C       65.77383339      11.51967861      10.62495514
C       67.25178618      11.51968566      12.67800606
C       65.77375248      11.51968287      12.17502362
F       68.73011813      11.51968856       8.74545689
F       67.25168827      11.51968041      14.05462482
C       70.94708620      12.79963926      10.12217590
C       67.99092885      12.79963456      10.62502426
C       69.46888164      12.79964161      12.67807519
C       67.99084794      12.79963882      12.17509275
F       70.94721359      12.79964451       8.74552602
F       69.46878373      12.79963637      14.05469395
C       73.16418166      14.07959521      10.12224503
C       70.20802431      14.07959052      10.62509339
C       71.68597710      14.07959757      12.67814431
C       70.20794340      14.07959478      12.17516187
F       73.16430905      14.07960047       8.74559514
F       71.68587918      14.07959232      14.05476307
C       75.38127711      15.35955117      10.12231415
C       72.42511977      15.35954647      10.62516251
C       73.90307255      15.35955352      12.67821343
C       72.42503885      15.35955073      12.17523100
F       75.38140450      15.35955642       8.74566427
F       73.90297464      15.35954828      14.05483220
C       77.59837257      16.63950712      10.12238328
C       74.64221522      16.63950243      10.62523164
C       76.12016801      16.63950948      12.67828256
C       74.64213431      16.63950669      12.17530012
F       77.59849996      16.63951238       8.74573339
F       76.12007010      16.63950423      14.05490132
C       79.81546803      17.91946307      10.12245240
C       76.85931068      17.91945838      10.62530076
C       78.33726347      17.91946543      12.67835168
C       76.85922977      17.91946264      12.17536925
F       79.81559542      17.91946833       8.74580252
F       78.33716555      17.91946019      14.05497045
C       82.03256349      19.19941903      10.12252153
C       79.07640614      19.19941434      10.62536989
C       80.55435892      19.19942139      12.67842081
C       79.07632522      19.19941860      12.17543837
F       82.03269087      19.19942429       8.74587164
F       80.55426101      19.19941614      14.05503957
C       84.24965894      20.47937498      10.12259065
C       81.29350159      20.47937029      10.62543901
C       82.77145438      20.47937734      12.67848993
C       81.29342068      20.47937455      12.17550750
F       84.24978633      20.47938024       8.74594076
F       82.77135647      20.47937210      14.05510870
C       86.46675440      21.75933094      10.12265978
C       83.51059705      21.75932625      10.62550813
C       84.98854984      21.75933330      12.67855906
C       83.51051614      21.75933051      12.17557662
F       86.46688179      21.75933619       8.74600989
F       84.98845193      21.75932805      14.05517782
C       88.68384986      23.03928689      10.12272890
C       85.72769251      23.03928220      10.62557726
C       87.20564529      23.03928925      12.67862818
C       85.72761160      23.03928646      12.17564575
F       88.68397724      23.03929215       8.74607901
F       87.20554738      23.03928401      14.05524695
C       90.90094531      24.31924285      10.12279803
C       87.94478796      24.31923815      10.62564638
C       89.42274075      24.31924521      12.67869731
C       87.94470705      24.31924242      12.17571487
F       90.90107270      24.31924810       8.74614814
F       89.42264284      24.31923996      14.05531607
C       93.11804077      25.59919880      10.12286715
C       90.16188342      25.59919411      10.62571551
C       91.63983621      25.59920116      12.67876643
C       90.16180251      25.59919837      12.17578399
F       93.11816816      25.59920406       8.74621726
F       91.63973830      25.59919592      14.05538520
C       95.33513623      26.87915476      10.12293628
C       92.37897888      26.87915006      10.62578463
C       93.85693167      26.87915712      12.67883556
C       92.37889797      26.87915433      12.17585312
F       95.33526362      26.87916001       8.74628639
F       93.85683375      26.87915187      14.05545432
C       97.55223168      28.15911071      10.12300540
C       94.59607433      28.15910602      10.62585376
C       96.07402712      28.15911307      12.67890468
C       94.59599342      28.15911028      12.17592224
F       97.55235907      28.15911597       8.74635551
F       96.07392921      28.15910782      14.05552344
C       99.76932714      29.43906667      10.12307453
C       96.81316979      29.43906197      10.62592288
C       98.29112258      29.43906903      12.67897381
C       96.81308888      29.43906624      12.17599137
F       99.76945453      29.43907192       8.74642464
F       98.29102467      29.43906378      14.05559257
C       28.82226913     -14.07942832      10.12086198
C       25.86611178     -14.07943301      10.62371034
C       27.34406457     -14.07942596      12.67676126
C       25.86603087     -14.07942875      12.17377883
F       28.82239652     -14.07942306       8.74421209
F       27.34396665     -14.07943121      14.05338003
C       31.03936458     -12.79947236      10.12093111
C       28.08320723     -12.79947706      10.62377946
C       29.56116002     -12.79947000      12.67683039
C       28.08312632     -12.79947279      12.17384795
F       31.03949197     -12.79946711       8.74428122
F       29.56106211     -12.79947525      14.05344915
C       33.25646004     -11.51951641      10.12100023
C       30.30030269     -11.51952110      10.62384859
C       31.77825548     -11.51951405      12.67689951
C       30.30022178     -11.51951684      12.17391707
F       33.25658743     -11.51951115       8.74435034
F       31.77815757     -11.51951930      14.05351828
C       35.47355550     -10.23956045      10.12106936
C       32.51739815     -10.23956515      10.62391771
C       33.99535094     -10.23955809      12.67696864
C       32.51731724     -10.23956088      12.17398620
F       35.47368289     -10.23955520       8.74441947
F       33.99525302     -10.23956334      14.05358740
C       37.69065095      -8.95960450      10.12113848
C       34.73449361      -8.95960919      10.62398684
C       36.21244639      -8.95960214      12.67703776
C       34.73441269      -8.95960493      12.17405532
F       37.69077834      -8.95959924       8.74448859
F       36.21234848      -8.95960739      14.05365652
C       39.90774641      -7.67964854      10.12120761
C       36.95158906      -7.67965324      10.62405596
C       38.42954185      -7.67964618      12.67710689
C       36.95150815      -7.67964898      12.17412445
F       39.90787380      -7.67964329       8.74455772
F       38.42944394      -7.67965143      14.05372565
C       42.12484187      -6.39969259      10.12127673
C       39.16868452      -6.39969728      10.62412509
C       40.64663731      -6.39969023      12.67717601
C       39.16860361      -6.39969302      12.17419357
F       42.12496926      -6.39968733       8.74462684
F       40.64653939      -6.39969548      14.05379477
C       44.34193733      -5.11973663      10.12134586
C       41.38577998      -5.11974133      10.62419421
C       42.86373276      -5.11973428      12.67724514
C       41.38569906      -5.11973707      12.17426270
F       44.34206471      -5.11973138       8.74469597
F       42.86363485      -5.11973952      14.05386390
C       46.55903278      -3.83978068      10.12141498
C       43.60287543      -3.83978537      10.62426334
C       45.08082822      -3.83977832      12.67731426
C       43.60279452      -3.83978111      12.17433182
F       46.55916017      -3.83977542       8.74476509
F       45.08073031      -3.83978357      14.05393302
C       48.77612824      -2.55982473      10.12148410
C       45.81997089      -2.55982942      10.62433246
C       47.29792368      -2.55982237      12.67738339
C       45.81988998      -2.55982516      12.17440095
F       48.77625563      -2.55981947       8.74483422
F       47.29782577      -2.55982761      14.05400215
C       50.99322370      -1.27986877      10.12155323
C       48.03706635      -1.27987346      10.62440159
C       49.51501913      -1.27986641      12.67745251
C       48.03698544      -1.27986920      12.17447007
F       50.99335108      -1.27986351       8.74490334
F       49.51492122      -1.27987166      14.05407127
C       53.21031915       0.00008718      10.12162235
C       50.25416180       0.00008249      10.62447071
C       51.73211459       0.00008954      12.67752163
C       50.25408089       0.00008675      12.17453920
F       53.21044654       0.00009244       8.74497247
F       51.73201668       0.00008430      14.05414040
C       55.42741461       1.28004314      10.12169148
C       52.47125726       1.28003845      10.62453984
C       53.94921005       1.28004550      12.67759076
C       52.47117635       1.28004271      12.17460832
F       55.42754200       1.28004839       8.74504159
F       53.94911214       1.28004025      14.05420952
C       57.64451007       2.55999909      10.12176060
C       54.68835272       2.55999440      10.62460896
C       56.16630551       2.56000145      12.67765988
C       54.68827181       2.55999866      12.17467745
F       57.64463746       2.56000435       8.74511072
F       56.16620759       2.55999621      14.05427865
C       59.86160552       3.83995505      10.12182973
C       56.90544817       3.83995036      10.62467809
C       58.38340096       3.83995741      12.67772901
C       56.90536726       3.83995462      12.17474657
F       59.86173291       3.83996030       8.74517984
F       58.38330305       3.83995216      14.05434777
C       62.07870098       5.11991100      10.12189885
C       59.12254363       5.11990631      10.62474721
C       60.60049642       5.11991336      12.67779813
C       59.12246272       5.11991057      12.17481570
F       62.07882837       5.11991626       8.74524896
F       60.60039851       5.11990812      14.05441690
C       64.29579644       6.39986696      10.12196798
C       61.33963909       6.39986226      10.62481633
C       62.81759188       6.39986932      12.67786726
C       61.33955818       6.39986653      12.17488482
F       64.29592383       6.39987221       8.74531809
F       62.81749396       6.39986407      14.05448602
C       66.51289189       7.67982291      10.12203710
C       63.55673454       7.67981822      10.62488546
C       65.03468733       7.67982527      12.67793638
C       63.55665363       7.67982248      12.17495395
F       66.51301928       7.67982817       8.74538721
F       65.03458942       7.67982002      14.05455515
C       68.72998735       8.95977887      10.12210623
C       65.77383000       8.95977417      10.62495458
C       67.25178279       8.95978123      12.67800551
C       65.77374909       8.95977844      12.17502307
F       68.73011474       8.95978412       8.74545634
F       67.25168488       8.95977598      14.05462427
C       70.94708281      10.23973482      10.12217535
C       67.99092546      10.23973013      10.62502371
C       69.46887825      10.23973718      12.67807463
C       67.99084455      10.23973439      12.17509219
F       70.94721020      10.23974008       8.74552546
F       69.46878033      10.23973193      14.05469340
C       73.16417826      11.51969078      10.12224448
C       70.20802092      11.51968608      10.62509283
C       71.68597370      11.51969314      12.67814376
C       70.20794000      11.51969035      12.17516132
F       73.16430565      11.51969603       8.74559459
F       71.68587579      11.51968789      14.05476252
C       75.38127372      12.79964673      10.12231360
C       72.42511637      12.79964204      10.62516196
C       73.90306916      12.79964909      12.67821288
C       72.42503546      12.79964630      12.17523044
F       75.38140111      12.79965199       8.74566371
F       73.90297125      12.79964384      14.05483164
C       77.59836918      14.07960269      10.12238273
C       74.64221183      14.07959799      10.62523108
C       76.12016462      14.07960505      12.67828201
C       74.64213092      14.07960225      12.17529957
F       77.59849657      14.07960794       8.74573284
F       76.12006670      14.07959980      14.05490077
C       79.81546464      15.35955864      10.12245185
C       76.85930729      15.35955395      10.62530021
C       78.33726007      15.35956100      12.67835113
C       76.85922637      15.35955821      12.17536869
F       79.81559202      15.35956390       8.74580196
F       78.33716216      15.35955575      14.05496989
C       82.03256009      16.63951460      10.12252097
C       79.07640274      16.63950990      10.62536933
C       80.55435553      16.63951695      12.67842026
C       79.07632183      16.63951416      12.17543782
F       82.03268748      16.63951985       8.74587109
F       80.55425762      16.63951171      14.05503902
C       84.24965555      17.91947055      10.12259010
C       81.29349820      17.91946586      10.62543846
C       82.77145099      17.91947291      12.67848938
C       81.29341729      17.91947012      12.17550694
F       84.24978294      17.91947581       8.74594021
F       82.77135308      17.91946766      14.05510814
C       86.46675101      19.19942651      10.12265922
C       83.51059366      19.19942181      10.62550758
C       84.98854644      19.19942886      12.67855850
C       83.51051275      19.19942607      12.17557607
F       86.46687839      19.19943176       8.74600934
F       84.98844853      19.19942362      14.05517727
C       88.68384646      20.47938246      10.12272835
C       85.72768911      20.47937777      10.62557671
C       87.20564190      20.47938482      12.67862763
C       85.72760820      20.47938203      12.17564519
F       88.68397385      20.47938772       8.74607846
F       87.20554399      20.47937957      14.05524639
C       90.90094192      21.75933841      10.12279747
C       87.94478457      21.75933372      10.62564583
C       89.42273736      21.75934077      12.67869675
C       87.94470366      21.75933798      12.17571432
F       90.90106931      21.75934367       8.74614759
F       89.42263945      21.75933553      14.05531552
C       93.11803738      23.03929437      10.12286660
C       90.16188003      23.03928968      10.62571496
C       91.63983282      23.03929673      12.67876588
C       90.16179912      23.03929394      12.17578344
F       93.11816477      23.03929963       8.74621671
F       91.63973490      23.03929148      14.05538464
C       95.33513283      24.31925032      10.12293572
C       92.37897548      24.31924563      10.62578408
C       93.85692827      24.31925268      12.67883500
C       92.37889457      24.31924989      12.17585257
F       95.33526022      24.31925558       8.74628583
F       93.85683036      24.31924744      14.05545377
C       97.55222829      25.59920628      10.12300485
C       94.59607094      25.59920159      10.62585320
C       96.07402373      25.59920864      12.67890413
C       94.59599003      25.59920585      12.17592169
F       97.55235568      25.59921153       8.74635496
F       96.07392582      25.59920339      14.05552289
C       99.76932375      26.87916223      10.12307397
C       96.81316640      26.87915754      10.62592233
C       98.29111919      26.87916459      12.67897325
C       96.81308549      26.87916180      12.17599082
F       99.76945114      26.87916749       8.74642408
F       98.29102127      26.87915935      14.05559202
C      101.98641920      28.15911819      10.12314310
C       99.03026185      28.15911349      10.62599145
C      100.50821464      28.15912055      12.67904238
C       99.03018094      28.15911776      12.17605994
F      101.98654659      28.15912344       8.74649321
F      100.50811673      28.15911530      14.05566114
C       31.03936119     -15.35937680      10.12093055
C       28.08320384     -15.35938149      10.62377891
C       29.56115663     -15.35937444      12.67682983
C       28.08312293     -15.35937723      12.17384740
F       31.03948858     -15.35937154       8.74428067
F       29.56105872     -15.35937968      14.05344860
C       33.25645665     -14.07942084      10.12099968
C       30.30029930     -14.07942554      10.62384804
C       31.77825209     -14.07941848      12.67689896
C       30.30021839     -14.07942127      12.17391652
F       33.25658404     -14.07941559       8.74434979
F       31.77815417     -14.07942373      14.05351772
C       35.47355210     -12.79946489      10.12106880
C       32.51739476     -12.79946958      10.62391716
C       33.99534754     -12.79946253      12.67696808
C       32.51731384     -12.79946532      12.17398565
F       35.47367949     -12.79945963       8.74441892
F       33.99524963     -12.79946777      14.05358685
C       37.69064756     -11.51950893      10.12113793
C       34.73449021     -11.51951363      10.62398629
C       36.21244300     -11.51950657      12.67703721
C       34.73440930     -11.51950936      12.17405477
F       37.69077495     -11.51950368       8.74448804
F       36.21234509     -11.51951182      14.05365597
C       39.90774302     -10.23955298      10.12120705
C       36.95158567     -10.23955767      10.62405541
C       38.42953846     -10.23955062      12.67710633
C       36.95150476     -10.23955341      12.17412390
F       39.90787041     -10.23954772       8.74455716
F       38.42944054     -10.23955587      14.05372510
C       42.12483848      -8.95959702      10.12127618
C       39.16868113      -8.95960172      10.62412453
C       40.64663391      -8.95959466      12.67717546
C       39.16860021      -8.95959745      12.17419302
F       42.12496586      -8.95959177       8.74462629
F       40.64653600      -8.95959991      14.05379422
C       44.34193393      -7.67964107      10.12134530
C       41.38577658      -7.67964576      10.62419366
C       42.86372937      -7.67963871      12.67724458
C       41.38569567      -7.67964150      12.17426215
F       44.34206132      -7.67963581       8.74469541
F       42.86363146      -7.67964396      14.05386335
C       46.55902939      -6.39968511      10.12141443
C       43.60287204      -6.39968981      10.62426278
C       45.08082483      -6.39968275      12.67731371
C       43.60279113      -6.39968554      12.17433127
F       46.55915678      -6.39967986       8.74476454
F       45.08072692      -6.39968800      14.05393247
C       48.77612485      -5.11972916      10.12148355
C       45.81996750      -5.11973385      10.62433191
C       47.29792028      -5.11972680      12.67738283
C       45.81988659      -5.11972959      12.17440039
F       48.77625223      -5.11972390       8.74483366
F       47.29782237      -5.11973205      14.05400160
C       50.99322030      -3.83977320      10.12155268
C       48.03706295      -3.83977790      10.62440103
C       49.51501574      -3.83977084      12.67745196
C       48.03698204      -3.83977364      12.17446952
F       50.99334769      -3.83976795       8.74490279
F       49.51491783      -3.83977609      14.05407072
C       53.21031576      -2.55981725      10.12162180
C       50.25415841      -2.55982194      10.62447016
C       51.73211120      -2.55981489      12.67752108
C       50.25407750      -2.55981768      12.17453864
F       53.21044315      -2.55981199       8.74497191
F       51.73201329      -2.55982014      14.05413984
C       55.42741122      -1.27986129      10.12169093
C       52.47125387      -1.27986599      10.62453928
C       53.94920666      -1.27985894      12.67759021
C       52.47117296      -1.27986173      12.17460777
F       55.42753861      -1.27985604       8.74504104
F       53.94910874      -1.27986418      14.05420897
C       57.64450667       0.00009466      10.12176005
C       54.68834932       0.00008997      10.62460841
C       56.16630211       0.00009702      12.67765933
C       54.68826841       0.00009423      12.17467689
F       57.64463406       0.00009992       8.74511016
F       56.16620420       0.00009177      14.05427809
C       59.86160213       1.28005061      10.12182917
C       56.90544478       1.28004592      10.62467753
C       58.38339757       1.28005297      12.67772846
C       56.90536387       1.28005018      12.17474602
F       59.86172952       1.28005587       8.74517929
F       58.38329966       1.28004773      14.05434722
C       62.07869759       2.56000657      10.12189830
C       59.12254024       2.56000188      10.62474666
C       60.60049303       2.56000893      12.67779758
C       59.12245933       2.56000614      12.17481514
F       62.07882498       2.56001183       8.74524841
F       60.60039511       2.56000368      14.05441634
C       64.29579304       3.83996252      10.12196742
C       61.33963569       3.83995783      10.62481578
C       62.81758848       3.83996488      12.67786670
C       61.33955478       3.83996209      12.17488427
F       64.29592043       3.83996778       8.74531754
F       62.81749057       3.83995964      14.05448547
C       66.51288850       5.11991848      10.12203655
C       63.55673115       5.11991379      10.62488491
C       65.03468394       5.11992084      12.67793583
C       63.55665024       5.11991805      12.17495339
F       66.51301589       5.11992373       8.74538666
F       65.03458603       5.11991559      14.05455459
C       68.72998396       6.39987443      10.12210567
C       65.77382661       6.39986974      10.62495403
C       67.25177940       6.39987679      12.67800495
C       65.77374570       6.39987400      12.17502252
F       68.73011135       6.39987969       8.74545579
F       67.25168148       6.39987155      14.05462372
C       70.94707941       7.67983039      10.12217480
C       67.99092207       7.67982570      10.62502316
C       69.46887485       7.67983275      12.67807408
C       67.99084115       7.67982996      12.17509164
F       70.94720680       7.67983564       8.74552491
F       69.46877694       7.67982750      14.05469284
C       73.16417487       8.95978634      10.12224392
C       70.20801752       8.95978165      10.62509228
C       71.68597031       8.95978870      12.67814320
C       70.20793661       8.95978591      12.17516077
F       73.16430226       8.95979160       8.74559403
F       71.68587240       8.95978346      14.05476197
C       75.38127033      10.23974230      10.12231305
C       72.42511298      10.23973760      10.62516141
C       73.90306577      10.23974466      12.67821233
C       72.42503207      10.23974187      12.17522989
F       75.38139772      10.23974755       8.74566316
F       73.90296785      10.23973941      14.05483109
C       77.59836579      11.51969825      10.12238217
C       74.64220844      11.51969356      10.62523053
C       76.12016122      11.51970061      12.67828145
C       74.64212752      11.51969782      12.17529902
F       77.59849317      11.51970351       8.74573228
F       76.12006331      11.51969536      14.05490022
C       79.81546124      12.79965421      10.12245130
C       76.85930389      12.79964951      10.62529965
C       78.33725668      12.79965657      12.67835058
C       76.85922298      12.79965378      12.17536814
F       79.81558863      12.79965946       8.74580141
F       78.33715877      12.79965132      14.05496934
C       82.03255670      14.07961016      10.12252042
C       79.07639935      14.07960547      10.62536878
C       80.55435214      14.07961252      12.67841970
C       79.07631844      14.07960973      12.17543726
F       82.03268409      14.07961542       8.74587053
F       80.55425423      14.07960727      14.05503847
C       84.24965216      15.35956612      10.12258955
C       81.29349481      15.35956142      10.62543790
C       82.77144759      15.35956848      12.67848883
C       81.29341390      15.35956569      12.17550639
F       84.24977954      15.35957137       8.74593966
F       82.77134968      15.35956323      14.05510759
C       86.46674761      16.63952207      10.12265867
C       83.51059026      16.63951738      10.62550703
C       84.98854305      16.63952443      12.67855795
C       83.51050935      16.63952164      12.17557551
F       86.46687500      16.63952733       8.74600878
F       84.98844514      16.63951918      14.05517671
C       88.68384307      17.91947803      10.12272780
C       85.72768572      17.91947333      10.62557615
C       87.20563851      17.91948039      12.67862708
C       85.72760481      17.91947759      12.17564464
F       88.68397046      17.91948328       8.74607791
F       87.20554060      17.91947514      14.05524584
C       90.90093853      19.19943398      10.12279692
C       87.94478118      19.19942929      10.62564528
C       89.42273397      19.19943634      12.67869620
C       87.94470027      19.19943355      12.17571376
F       90.90106592      19.19943924       8.74614703
F       89.42263605      19.19943109      14.05531496
C       93.11803398      20.47938994      10.12286604
C       90.16187663      20.47938524      10.62571440
C       91.63982942      20.47939229      12.67876533
C       90.16179572      20.47938950      12.17578289
F       93.11816137      20.47939519       8.74621616
F       91.63973151      20.47938705      14.05538409
C       95.33512944      21.75934589      10.12293517
C       92.37897209      21.75934120      10.62578353
C       93.85692488      21.75934825      12.67883445
C       92.37889118      21.75934546      12.17585201
F       95.33525683      21.75935115       8.74628528
F       93.85682697      21.75934300      14.05545321
C       97.55222490      23.03930184      10.12300429
C       94.59606755      23.03929715      10.62585265
C       96.07402034      23.03930420      12.67890358
C       94.59598664      23.03930141      12.17592114
F       97.55235229      23.03930710       8.74635441
F       96.07392242      23.03929896      14.05552234
C       99.76932035      24.31925780      10.12307342
C       96.81316300      24.31925311      10.62592178
C       98.29111579      24.31926016      12.67897270
C       96.81308209      24.31925737      12.17599026
F       99.76944774      24.31926306       8.74642353
F       98.29101788      24.31925491      14.05559146
C      101.98641581      25.59921375      10.12314254
C       99.03025846      25.59920906      10.62599090
C      100.50821125      25.59921611      12.67904182
C       99.03017755      25.59921332      12.17605939
F      101.98654320      25.59921901       8.74649266
F      100.50811334      25.59921087      14.05566059
C      104.20351127      26.87916971      10.12321167
C      101.24735392      26.87916502      10.62606003
C      102.72530671      26.87917207      12.67911095
C      101.24727301      26.87916928      12.17612851
F      104.20363866      26.87917497       8.74656178
F      102.72520879      26.87916682      14.05572971
C       33.25645326     -16.63932528      10.12099913
C       30.30029591     -16.63932997      10.62384748
C       31.77824869     -16.63932292      12.67689841
C       30.30021499     -16.63932571      12.17391597
F       33.25658064     -16.63932002       8.74434924
F       31.77815078     -16.63932816      14.05351717
C       35.47354871     -15.35936932      10.12106825
C       32.51739136     -15.35937401      10.62391661
C       33.99534415     -15.35936696      12.67696753
C       32.51731045     -15.35936975      12.17398509
F       35.47367610     -15.35936407       8.74441836
F       33.99524624     -15.35937221      14.05358629
C       37.69064417     -14.07941337      10.12113737
C       34.73448682     -14.07941806      10.62398573
C       36.21243961     -14.07941101      12.67703666
C       34.73440591     -14.07941380      12.17405422
F       37.69077156     -14.07940811       8.74448749
F       36.21234170     -14.07941625      14.05365542
C       39.90773963     -12.79945741      10.12120650
C       36.95158228     -12.79946210      10.62405486
C       38.42953506     -12.79945505      12.67710578
C       36.95150137     -12.79945784      12.17412334
F       39.90786701     -12.79945216       8.74455661
F       38.42943715     -12.79946030      14.05372454
C       42.12483508     -11.51950146      10.12127562
C       39.16867773     -11.51950615      10.62412398
C       40.64663052     -11.51949910      12.67717491
C       39.16859682     -11.51950189      12.17419247
F       42.12496247     -11.51949620       8.74462574
F       40.64653261     -11.51950434      14.05379367
C       44.34193054     -10.23954550      10.12134475
C       41.38577319     -10.23955020      10.62419311
C       42.86372598     -10.23954314      12.67724403
C       41.38569228     -10.23954593      12.17426159
F       44.34205793     -10.23954025       8.74469486
F       42.86362807     -10.23954839      14.05386279
C       46.55902600      -8.95958955      10.12141387
C       43.60286865      -8.95959424      10.62426223
C       45.08082144      -8.95958719      12.67731315
C       43.60278774      -8.95958998      12.17433072
F       46.55915338      -8.95958429       8.74476399
F       45.08072352      -8.95959243      14.05393192
C       48.77612145      -7.67963359      10.12148300
C       45.81996410      -7.67963829      10.62433136
C       47.29791689      -7.67963123      12.67738228
C       45.81988319      -7.67963402      12.17439984
F       48.77624884      -7.67962834       8.74483311
F       47.29781898      -7.67963648      14.05400104
C       50.99321691      -6.39967764      10.12155212
C       48.03705956      -6.39968233      10.62440048
C       49.51501235      -6.39967528      12.67745140
C       48.03697865      -6.39967807      12.17446897
F       50.99334430      -6.39967238       8.74490224
F       49.51491444      -6.39968053      14.05407017
C       53.21031237      -5.11972168      10.12162125
C       50.25415502      -5.11972638      10.62446961
C       51.73210781      -5.11971932      12.67752053
C       50.25407411      -5.11972211      12.17453809
F       53.21043976      -5.11971643       8.74497136
F       51.73200989      -5.11972457      14.05413929
C       55.42740782      -3.83976573      10.12169037
C       52.47125047      -3.83977042      10.62453873
C       53.94920326      -3.83976337      12.67758965
C       52.47116956      -3.83976616      12.17460722
F       55.42753521      -3.83976047       8.74504048
F       53.94910535      -3.83976862      14.05420842
C       57.64450328      -2.55980977      10.12175950
C       54.68834593      -2.55981447      10.62460785
C       56.16629872      -2.55980741      12.67765878
C       54.68826502      -2.55981021      12.17467634
F       57.64463067      -2.55980452       8.74510961
F       56.16620081      -2.55981266      14.05427754
C       59.86159874      -1.27985382      10.12182862
C       56.90544139      -1.27985851      10.62467698
C       58.38339418      -1.27985146      12.67772790
C       56.90536048      -1.27985425      12.17474546
F       59.86172613      -1.27984856       8.74517873
F       58.38329626      -1.27985671      14.05434667
C       62.07869419       0.00010214      10.12189775
C       59.12253684       0.00009744      10.62474610
C       60.60048963       0.00010450      12.67779703
C       59.12245593       0.00010170      12.17481459
F       62.07882158       0.00010739       8.74524786
F       60.60039172       0.00009925      14.05441579
C       64.29578965       1.28005809      10.12196687
C       61.33963230       1.28005340      10.62481523
C       62.81758509       1.28006045      12.67786615
C       61.33955139       1.28005766      12.17488371
F       64.29591704       1.28006335       8.74531698
F       62.81748718       1.28005520      14.05448491
C       66.51288511       2.56001405      10.12203600
C       63.55672776       2.56000935      10.62488435
C       65.03468055       2.56001640      12.67793528
C       63.55664685       2.56001361      12.17495284
F       66.51301250       2.56001930       8.74538611
F       65.03458263       2.56001116      14.05455404
C       68.72998056       3.83997000      10.12210512
C       65.77382322       3.83996531      10.62495348
C       67.25177600       3.83997236      12.67800440
C       65.77374230       3.83996957      12.17502196
F       68.73010795       3.83997526       8.74545523
F       67.25167809       3.83996711      14.05462316
C       70.94707602       5.11992595      10.12217424
C       67.99091867       5.11992126      10.62502260
C       69.46887146       5.11992831      12.67807353
C       67.99083776       5.11992552      12.17509109
F       70.94720341       5.11993121       8.74552436
F       69.46877355       5.11992307      14.05469229
C       73.16417148       6.39988191      10.12224337
C       70.20801413       6.39987722      10.62509173
C       71.68596692       6.39988427      12.67814265
C       70.20793322       6.39988148      12.17516021
F       73.16429887       6.39988717       8.74559348
F       71.68586900       6.39987902      14.05476141
C       75.38126694       7.67983786      10.12231249
C       72.42510959       7.67983317      10.62516085
C       73.90306237       7.67984022      12.67821178
C       72.42502867       7.67983743      12.17522934
F       75.38139432       7.67984312       8.74566261
F       73.90296446       7.67983498      14.05483054
C       77.59836239       8.95979382      10.12238162
C       74.64220504       8.95978913      10.62522998
C       76.12015783       8.95979618      12.67828090
C       74.64212413       8.95979339      12.17529846
F       77.59848978       8.95979907       8.74573173
F       76.12005992       8.95979093      14.05489966
C       79.81545785      10.23974977      10.12245074
C       76.85930050      10.23974508      10.62529910
C       78.33725329      10.23975213      12.67835002
C       76.85921959      10.23974934      12.17536759
F       79.81558524      10.23975503       8.74580086
F       78.33715538      10.23974689      14.05496879
C       82.03255331      11.51970573      10.12251987
C       79.07639596      11.51970103      10.62536823
C       80.55434874      11.51970809      12.67841915
C       79.07631505      11.51970530      12.17543671
F       82.03268069      11.51971098       8.74586998
F       80.55425083      11.51970284      14.05503791
C       84.24964876      12.79966168      10.12258899
C       81.29349141      12.79965699      10.62543735
C       82.77144420      12.79966404      12.67848827
C       81.29341050      12.79966125      12.17550584
F       84.24977615      12.79966694       8.74593911
F       82.77134629      12.79965880      14.05510704
C       86.46674422      14.07961764      10.12265812
C       83.51058687      14.07961294      10.62550648
C       84.98853966      14.07962000      12.67855740
C       83.51050596      14.07961721      12.17557496
F       86.46687161      14.07962289       8.74600823
F       84.98844175      14.07961475      14.05517616
C       88.68383968      15.35957359      10.12272724
C       85.72768233      15.35956890      10.62557560
C       87.20563512      15.35957595      12.67862652
C       85.72760142      15.35957316      12.17564409
F       88.68396707      15.35957885       8.74607735
F       87.20553720      15.35957070      14.05524529
C       90.90093513      16.63952955      10.12279637
C       87.94477778      16.63952485      10.62564472
C       89.42273057      16.63953191      12.67869565
C       87.94469687      16.63952912      12.17571321
F       90.90106252      16.63953480       8.74614648
F       89.42263266      16.63952666      14.05531441
C       93.11803059      17.91948550      10.12286549
C       90.16187324      17.91948081      10.62571385
C       91.63982603      17.91948786      12.67876477
C       90.16179233      17.91948507      12.17578233
F       93.11815798      17.91949076       8.74621560
F       91.63972812      17.91948261      14.05538354
C       95.33512605      19.19944146      10.12293462
C       92.37896870      19.19943676      10.62578297
C       93.85692149      19.19944382      12.67883390
C       92.37888779      19.19944103      12.17585146
F       95.33525344      19.19944671       8.74628473
F       93.85682357      19.19943857      14.05545266
C       97.55222150      20.47939741      10.12300374
C       94.59606415      20.47939272      10.62585210
C       96.07401694      20.47939977      12.67890302
C       94.59598324      20.47939698      12.17592058
F       97.55234889      20.47940267       8.74635385
F       96.07391903      20.47939452      14.05552178
C       99.76931696      21.75935337      10.12307287
C       96.81315961      21.75934867      10.62592122
C       98.29111240      21.75935573      12.67897215
C       96.81307870      21.75935293      12.17598971
F       99.76944435      21.75935862       8.74642298
F       98.29101449      21.75935048      14.05559091
C      101.98641242      23.03930932      10.12314199
C       99.03025507      23.03930463      10.62599035
C      100.50820786      23.03931168      12.67904127
C       99.03017416      23.03930889      12.17605883
F      101.98653981      23.03931458       8.74649210
F      100.50810994      23.03930643      14.05566003
C      104.20350787      24.31926528      10.12321111
C      101.24735053      24.31926058      10.62605947
C      102.72530331      24.31926763      12.67911040
C      101.24726961      24.31926484      12.17612796
F      104.20363526      24.31927053       8.74656123
F      102.72520540      24.31926239      14.05572916
C      106.42060333      25.59922123      10.12328024
C      103.46444598      25.59921654      10.62612860
C      104.94239877      25.59922359      12.67917952
C      103.46436507      25.59922080      12.17619708
F      106.42073072      25.59922649       8.74663035
F      104.94230086      25.59921834      14.05579828
C       35.47354532     -17.91927375      10.12106770
C       32.51738797     -17.91927845      10.62391605
C       33.99534076     -17.91927140      12.67696698
C       32.51730706     -17.91927419      12.17398454
F       35.47367271     -17.91926850       8.74441781
F       33.99524285     -17.91927664      14.05358574
C       37.69064078     -16.63931780      10.12113682
C       34.73448343     -16.63932249      10.62398518
C       36.21243621     -16.63931544      12.67703610
C       34.73440252     -16.63931823      12.17405366
F       37.69076816     -16.63931254       8.74448693
F       36.21233830     -16.63932069      14.05365487
C       39.90773623     -15.35936185      10.12120595
C       36.95157888     -15.35936654      10.62405430
C       38.42953167     -15.35935949      12.67710523
C       36.95149797     -15.35936228      12.17412279
F       39.90786362     -15.35935659       8.74455606
F       38.42943376     -15.35936473      14.05372399
C       42.12483169     -14.07940589      10.12127507
C       39.16867434     -14.07941058      10.62412343
C       40.64662713     -14.07940353      12.67717435
C       39.16859343     -14.07940632      12.17419191
F       42.12495908     -14.07940063       8.74462518
F       40.64652922     -14.07940878      14.05379311
C       44.34192715     -12.79944994      10.12134420
C       41.38576980     -12.79945463      10.62419255
C       42.86372259     -12.79944758      12.67724348
C       41.38568889     -12.79945037      12.17426104
F       44.34205454     -12.79944468       8.74469431
F       42.86362467     -12.79945282      14.05386224
C       46.55902260     -11.51949398      10.12141332
C       43.60286525     -11.51949867      10.62426168
C       45.08081804     -11.51949162      12.67731260
C       43.60278434     -11.51949441      12.17433016
F       46.55914999     -11.51948873       8.74476343
F       45.08072013     -11.51949687      14.05393136
C       48.77611806     -10.23953803      10.12148244
C       45.81996071     -10.23954272      10.62433080
C       47.29791350     -10.23953567      12.67738173
C       45.81987980     -10.23953846      12.17439929
F       48.77624545     -10.23953277       8.74483256
F       47.29781559     -10.23954091      14.05400049
C       50.99321352      -8.95958207      10.12155157
C       48.03705617      -8.95958676      10.62439993
C       49.51500896      -8.95957971      12.67745085
C       48.03697526      -8.95958250      12.17446841
F       50.99334091      -8.95957682       8.74490168
F       49.51491104      -8.95958496      14.05406961
C       53.21030897      -7.67962612      10.12162069
C       50.25415162      -7.67963081      10.62446905
C       51.73210441      -7.67962376      12.67751998
C       50.25407071      -7.67962655      12.17453754
F       53.21043636      -7.67962086       8.74497081
F       51.73200650      -7.67962900      14.05413874
C       55.42740443      -6.39967016      10.12168982
C       52.47124708      -6.39967486      10.62453818
C       53.94919987      -6.39966780      12.67758910
C       52.47116617      -6.39967059      12.17460666
F       55.42753182      -6.39966491       8.74503993
F       53.94910196      -6.39967305      14.05420786
C       57.64449989      -5.11971421      10.12175894
C       54.68834254      -5.11971890      10.62460730
C       56.16629533      -5.11971185      12.67765822
C       54.68826163      -5.11971464      12.17467579
F       57.64462728      -5.11970895       8.74510906
F       56.16619741      -5.11971710      14.05427699
C       59.86159534      -3.83975825      10.12182807
C       56.90543800      -3.83976295      10.62467643
C       58.38339078      -3.83975589      12.67772735
C       56.90535708      -3.83975868      12.17474491
F       59.86172273      -3.83975300       8.74517818
F       58.38329287      -3.83976114      14.05434611
C       62.07869080      -2.55980230      10.12189719
C       59.12253345      -2.55980699      10.62474555
C       60.60048624      -2.55979994      12.67779647
C       59.12245254      -2.55980273      12.17481404
F       62.07881819      -2.55979704       8.74524731
F       60.60038833      -2.55980519      14.05441524
C       64.29578626      -1.27984634      10.12196632
C       61.33962891      -1.27985104      10.62481468
C       62.81758170      -1.27984398      12.67786560
C       61.33954800      -1.27984677      12.17488316
F       64.29591365      -1.27984109       8.74531643
F       62.81748378      -1.27984923      14.05448436
C       66.51288172       0.00010961      10.12203544
C       63.55672437       0.00010492      10.62488380
C       65.03467715       0.00011197      12.67793472
C       63.55664345       0.00010918      12.17495229
F       66.51300910       0.00011487       8.74538555
F       65.03457924       0.00010672      14.05455349
C       68.72997717       1.28006557      10.12210457
C       65.77381982       1.28006087      10.62495292
C       67.25177261       1.28006793      12.67800385
C       65.77373891       1.28006513      12.17502141
F       68.73010456       1.28007082       8.74545468
F       67.25167470       1.28006268      14.05462261
C       70.94707263       2.56002152      10.12217369
C       67.99091528       2.56001683      10.62502205
C       69.46886807       2.56002388      12.67807297
C       67.99083437       2.56002109      12.17509054
F       70.94720002       2.56002678       8.74552380
F       69.46877016       2.56001863      14.05469174
C       73.16416809       3.83997748      10.12224282
C       70.20801074       3.83997278      10.62509117
C       71.68596352       3.83997983      12.67814210
C       70.20792983       3.83997704      12.17515966
F       73.16429547       3.83998273       8.74559293
F       71.68586561       3.83997459      14.05476086
C       75.38126354       5.11993343      10.12231194
C       72.42510619       5.11992874      10.62516030
C       73.90305898       5.11993579      12.67821122
C       72.42502528       5.11993300      12.17522878
F       75.38139093       5.11993869       8.74566205
F       73.90296107       5.11993054      14.05482999
C       77.59835900       6.39988939      10.12238107
C       74.64220165       6.39988469      10.62522942
C       76.12015444       6.39989174      12.67828035
C       74.64212074       6.39988895      12.17529791
F       77.59848639       6.39989464       8.74573118
F       76.12005653       6.39988650      14.05489911
C       79.81545446       7.67984534      10.12245019
C       76.85929711       7.67984065      10.62529855
C       78.33724990       7.67984770      12.67834947
C       76.85921620       7.67984491      12.17536703
F       79.81558184       7.67985060       8.74580030
F       78.33715198       7.67984245      14.05496823
C       82.03254991       8.95980129      10.12251932
C       79.07639256       8.95979660      10.62536767
C       80.55434535       8.95980365      12.67841860
C       79.07631165       8.95980086      12.17543616
F       82.03267730       8.95980655       8.74586943
F       80.55424744       8.95979841      14.05503736
C       84.24964537      10.23975725      10.12258844
C       81.29348802      10.23975256      10.62543680
C       82.77144081      10.23975961      12.67848772
C       81.29340711      10.23975682      12.17550528
F       84.24977276      10.23976251       8.74593855
F       82.77134290      10.23975436      14.05510648
C       86.46674083      11.51971320      10.12265756
C       83.51058348      11.51970851      10.62550592
C       84.98853627      11.51971556      12.67855685
C       83.51050257      11.51971277      12.17557441
F       86.46686822      11.51971846       8.74600768
F       84.98843835      11.51971032      14.05517561
C       88.68383628      12.79966916      10.12272669
C       85.72767893      12.79966447      10.62557505
C       87.20563172      12.79967152      12.67862597
C       85.72759802      12.79966873      12.17564353
F       88.68396367      12.79967441       8.74607680
F       87.20553381      12.79966627      14.05524473
C       90.90093174      14.07962511      10.12279581
C       87.94477439      14.07962042      10.62564417
C       89.42272718      14.07962747      12.67869509
C       87.94469348      14.07962468      12.17571266
F       90.90105913      14.07963037       8.74614593
F       89.42262927      14.07962223      14.05531386
C       93.11802720      15.35958107      10.12286494
C       90.16186985      15.35957637      10.62571330
C       91.63982264      15.35958343      12.67876422
C       90.16178894      15.35958064      12.17578178
F       93.11815459      15.35958632       8.74621505
F       91.63972472      15.35957818      14.05538298
C       95.33512265      16.63953702      10.12293406
C       92.37896531      16.63953233      10.62578242
C       93.85691809      16.63953938      12.67883334
C       92.37888439      16.63953659      12.17585091
F       95.33525004      16.63954228       8.74628418
F       93.85682018      16.63953414      14.05545211
C       97.55221811      17.91949298      10.12300319
C       94.59606076      17.91948828      10.62585155
C       96.07401355      17.91949534      12.67890247
C       94.59597985      17.91949255      12.17592003
F       97.55234550      17.91949823       8.74635330
F       96.07391564      17.91949009      14.05552123
C       99.76931357      19.19944893      10.12307231
C       96.81315622      19.19944424      10.62592067
C       98.29110901      19.19945129      12.67897159
C       96.81307531      19.19944850      12.17598916
F       99.76944096      19.19945419       8.74642242
F       98.29101109      19.19944604      14.05559036
C      101.98640903      20.47940489      10.12314144
C       99.03025168      20.47940019      10.62598979
C      100.50820446      20.47940725      12.67904072
C       99.03017076      20.47940446      12.17605828
F      101.98653641      20.47941014       8.74649155
F      100.50810655      20.47940200      14.05565948
C      104.20350448      21.75936084      10.12321056
C      101.24734713      21.75935615      10.62605892
C      102.72529992      21.75936320      12.67910984
C      101.24726622      21.75936041      12.17612741
F      104.20363187      21.75936610       8.74656067
F      102.72520201      21.75935795      14.05572861
C      106.42059994      23.03931680      10.12327969
C      103.46444259      23.03931210      10.62612804
C      104.94239538      23.03931916      12.67917897
C      103.46436168      23.03931637      12.17619653
F      106.42072733      23.03932205       8.74662980
F      104.94229747      23.03931391      14.05579773
C      108.63769540      24.31927275      10.12334881
C      105.68153805      24.31926806      10.62619717
C      107.15949083      24.31927511      12.67924809
C      105.68145713      24.31927232      12.17626565
F      108.63782278      24.31927801       8.74669892
F      107.15939292      24.31926986      14.05586686
C       37.69063738     -19.19922223      10.12113627
C       34.73448003     -19.19922693      10.62398463
C       36.21243282     -19.19921987      12.67703555
C       34.73439912     -19.19922266      12.17405311
F       37.69076477     -19.19921698       8.74448638
F       36.21233491     -19.19922512      14.05365431
C       39.90773284     -17.91926628      10.12120539
C       36.95157549     -17.91927097      10.62405375
C       38.42952828     -17.91926392      12.67710467
C       36.95149458     -17.91926671      12.17412224
F       39.90786023     -17.91926102       8.74455551
F       38.42943037     -17.91926917      14.05372344
C       42.12482830     -16.63931032      10.12127452
C       39.16867095     -16.63931502      10.62412288
C       40.64662374     -16.63930796      12.67717380
C       39.16859004     -16.63931076      12.17419136
F       42.12495569     -16.63930507       8.74462463
F       40.64652582     -16.63931321      14.05379256
C       44.34192375     -15.35935437      10.12134364
C       41.38576640     -15.35935906      10.62419200
C       42.86371919     -15.35935201      12.67724292
C       41.38568549     -15.35935480      12.17426049
F       44.34205114     -15.35934911       8.74469375
F       42.86362128     -15.35935726      14.05386169
C       46.55901921     -14.07939841      10.12141277
C       43.60286186     -14.07940311      10.62426112
C       45.08081465     -14.07939606      12.67731205
C       43.60278095     -14.07939885      12.17432961
F       46.55914660     -14.07939316       8.74476288
F       45.08071674     -14.07940130      14.05393081
C       48.77611467     -12.79944246      10.12148189
C       45.81995732     -12.79944715      10.62433025
C       47.29791011     -12.79944010      12.67738117
C       45.81987641     -12.79944289      12.17439874
F       48.77624206     -12.79943720       8.74483200
F       47.29781219     -12.79944535      14.05399994
C       50.99321012     -11.51948651      10.12155102
C       48.03705277     -11.51949120      10.62439937
C       49.51500556     -11.51948415      12.67745030
C       48.03697186     -11.51948694      12.17446786
F       50.99333751     -11.51948125       8.74490113
F       49.51490765     -11.51948939      14.05406906
C       53.21030558     -10.23953055      10.12162014
C       50.25414823     -10.23953524      10.62446850
C       51.73210102     -10.23952819      12.67751942
C       50.25406732     -10.23953098      12.17453698
F       53.21043297     -10.23952529       8.74497025
F       51.73200311     -10.23953344      14.05413819
C       55.42740104      -8.95957460      10.12168927
C       52.47124369      -8.95957929      10.62453762
C       53.94919648      -8.95957224      12.67758855
C       52.47116278      -8.95957503      12.17460611
F       55.42752843      -8.95956934       8.74503938
F       53.94909856      -8.95957748      14.05420731
C       57.64449649      -7.67961864      10.12175839
C       54.68833915      -7.67962333      10.62460675
C       56.16629193      -7.67961628      12.67765767
C       54.68825823      -7.67961907      12.17467523
F       57.64462388      -7.67961339       8.74510850
F       56.16619402      -7.67962153      14.05427643
C       59.86159195      -6.39966269      10.12182752
C       56.90543460      -6.39966738      10.62467587
C       58.38338739      -6.39966033      12.67772680
C       56.90535369      -6.39966312      12.17474436
F       59.86171934      -6.39965743       8.74517763
F       58.38328948      -6.39966557      14.05434556
C       62.07868741      -5.11970673      10.12189664
C       59.12253006      -5.11971142      10.62474500
C       60.60048285      -5.11970437      12.67779592
C       59.12244915      -5.11970716      12.17481348
F       62.07881480      -5.11970148       8.74524675
F       60.60038493      -5.11970962      14.05441468
C       64.29578287      -3.83975078      10.12196576
C       61.33962552      -3.83975547      10.62481412
C       62.81757830      -3.83974842      12.67786505
C       61.33954460      -3.83975121      12.17488261
F       64.29591025      -3.83974552       8.74531588
F       62.81748039      -3.83975366      14.05448381
C       66.51287832      -2.55979482      10.12203489
C       63.55672097      -2.55979952      10.62488325
C       65.03467376      -2.55979246      12.67793417
C       63.55664006      -2.55979525      12.17495173
F       66.51300571      -2.55978957       8.74538500
F       65.03457585      -2.55979771      14.05455293
C       68.72997378      -1.27983887      10.12210401
C       65.77381643      -1.27984356      10.62495237
C       67.25176922      -1.27983651      12.67800329
C       65.77373552      -1.27983930      12.17502086
F       68.73010117      -1.27983361       8.74545413
F       67.25167131      -1.27984176      14.05462206
C       70.94706924       0.00011709      10.12217314
C       67.99091189       0.00011239      10.62502150
C       69.46886467       0.00011945      12.67807242
C       67.99083098       0.00011666      12.17508998
F       70.94719662       0.00012234       8.74552325
F       69.46876676       0.00011420      14.05469118
C       73.16416469       1.28007304      10.12224226
C       70.20800734       1.28006835      10.62509062
C       71.68596013       1.28007540      12.67814154
C       70.20792643       1.28007261      12.17515911
F       73.16429208       1.28007830       8.74559238
F       71.68586222       1.28007015      14.05476031
C       75.38126015       2.56002900      10.12231139
C       72.42510280       2.56002430      10.62515975
C       73.90305559       2.56003136      12.67821067
C       72.42502189       2.56002857      12.17522823
F       75.38138754       2.56003425       8.74566150
F       73.90295768       2.56002611      14.05482943
C       77.59835561       3.83998495      10.12238051
C       74.64219826       3.83998026      10.62522887
C       76.12015105       3.83998731      12.67827979
C       74.64211735       3.83998452      12.17529736
F       77.59848300       3.83999021       8.74573062
F       76.12005313       3.83998206      14.05489856
C       79.81545106       5.11994091      10.12244964
C       76.85929371       5.11993621      10.62529799
C       78.33724650       5.11994327      12.67834892
C       76.85921280       5.11994047      12.17536648
F       79.81557845       5.11994616       8.74579975
F       78.33714859       5.11993802      14.05496768
C       82.03254652       6.39989686      10.12251876
C       79.07638917       6.39989217      10.62536712
C       80.55434196       6.39989922      12.67841804
C       79.07630826       6.39989643      12.17543561
F       82.03267391       6.39990212       8.74586887
F       80.55424405       6.39989397      14.05503681
C       84.24964198       7.67985282      10.12258789
C       81.29348463       7.67984812      10.62543624
C       82.77143742       7.67985517      12.67848717
C       81.29340372       7.67985238      12.17550473
F       84.24976937       7.67985807       8.74593800
F       82.77133950       7.67984993      14.05510593
C       86.46673743       8.95980877      10.12265701
C       83.51058008       8.95980408      10.62550537
C       84.98853287       8.95981113      12.67855629
C       83.51049917       8.95980834      12.17557385
F       86.46686482       8.95981403       8.74600712
F       84.98843496       8.95980588      14.05517506
C       88.68383289      10.23976473      10.12272614
C       85.72767554      10.23976003      10.62557449
C       87.20562833      10.23976708      12.67862542
C       85.72759463      10.23976429      12.17564298
F       88.68396028      10.23976998       8.74607625
F       87.20553042      10.23976184      14.05524418
C       90.90092835      11.51972068      10.12279526
C       87.94477100      11.51971599      10.62564362
C       89.42272379      11.51972304      12.67869454
C       87.94469009      11.51972025      12.17571210
F       90.90105574      11.51972594       8.74614537
F       89.42262587      11.51971779      14.05531330
C       93.11802380      12.79967663      10.12286439
C       90.16186646      12.79967194      10.62571274
C       91.63981924      12.79967899      12.67876367
C       90.16178554      12.79967620      12.17578123
F       93.11815119      12.79968189       8.74621450
F       91.63972133      12.79967375      14.05538243
C       95.33511926      14.07963259      10.12293351
C       92.37896191      14.07962790      10.62578187
C       93.85691470      14.07963495      12.67883279
C       92.37888100      14.07963216      12.17585035
F       95.33524665      14.07963785       8.74628362
F       93.85681679      14.07962970      14.05545155
C       97.55221472      15.35958854      10.12300263
C       94.59605737      15.35958385      10.62585099
C       96.07401016      15.35959090      12.67890192
C       94.59597646      15.35958811      12.17591948
F       97.55234211      15.35959380       8.74635275
F       96.07391224      15.35958566      14.05552068
C       99.76931018      16.63954450      10.12307176
C       96.81315283      16.63953981      10.62592012
C       98.29110561      16.63954686      12.67897104
C       96.81307191      16.63954407      12.17598860
F       99.76943756      16.63954975       8.74642187
F       98.29100770      16.63954161      14.05558980
C      101.98640563      17.91950045      10.12314088
C       99.03024828      17.91949576      10.62598924
C      100.50820107      17.91950281      12.67904016
C       99.03016737      17.91950002      12.17605773
F      101.98653302      17.91950571       8.74649100
F      100.50810316      17.91949757      14.05565893
C      104.20350109      19.19945641      10.12321001
C      101.24734374      19.19945171      10.62605837
C      102.72529653      19.19945877      12.67910929
C      101.24726283      19.19945598      12.17612685
F      104.20362848      19.19946166       8.74656012
F      102.72519862      19.19945352      14.05572805
C      106.42059655      20.47941236      10.12327913
C      103.46443920      20.47940767      10.62612749
C      104.94239198      20.47941472      12.67917841
C      103.46435829      20.47941193      12.17619598
F      106.42072393      20.47941762       8.74662925
F      104.94229407      20.47940948      14.05579718
C      108.63769200      21.75936832      10.12334826
C      105.68153465      21.75936362      10.62619662
C      107.15948744      21.75937068      12.67924754
C      105.68145374      21.75936789      12.17626510
F      108.63781939      21.75937357       8.74669837
F      107.15938953      21.75936543      14.05586630
C      110.85478746      23.03932427      10.12341738
C      107.89863011      23.03931958      10.62626574
C      109.37658290      23.03932663      12.67931666
C      107.89854920      23.03932384      12.17633423
F      110.85491485      23.03932953       8.74676750
F      109.37648499      23.03932138      14.05593543
C       39.90772945     -20.47917071      10.12120484
C       36.95157210     -20.47917541      10.62405320
C       38.42952489     -20.47916835      12.67710412
C       36.95149119     -20.47917114      12.17412168
F       39.90785684     -20.47916546       8.74455495
F       38.42942697     -20.47917360      14.05372288
C       42.12482490     -19.19921476      10.12127396
C       39.16866755     -19.19921945      10.62412232
C       40.64662034     -19.19921240      12.67717325
C       39.16858664     -19.19921519      12.17419081
F       42.12495229     -19.19920950       8.74462408
F       40.64652243     -19.19921765      14.05379201
C       44.34192036     -17.91925880      10.12134309
C       41.38576301     -17.91926350      10.62419145
C       42.86371580     -17.91925644      12.67724237
C       41.38568210     -17.91925923      12.17425993
F       44.34204775     -17.91925355       8.74469320
F       42.86361789     -17.91926169      14.05386113
C       46.55901582     -16.63930285      10.12141221
C       43.60285847     -16.63930754      10.62426057
C       45.08081126     -16.63930049      12.67731149
C       43.60277756     -16.63930328      12.17432906
F       46.55914321     -16.63929759       8.74476233
F       45.08071334     -16.63930574      14.05393026
C       48.77611127     -15.35934689      10.12148134
C       45.81995392     -15.35935159      10.62432970
C       47.29790671     -15.35934453      12.67738062
C       45.81987301     -15.35934733      12.17439818
F       48.77623866     -15.35934164       8.74483145
F       47.29780880     -15.35934978      14.05399938
C       50.99320673     -14.07939094      10.12155046
C       48.03704938     -14.07939563      10.62439882
C       49.51500217     -14.07938858      12.67744974
C       48.03696847     -14.07939137      12.17446731
F       50.99333412     -14.07938568       8.74490058
F       49.51490426     -14.07939383      14.05406851
C       53.21030219     -12.79943498      10.12161959
C       50.25414484     -12.79943968      10.62446795
C       51.73209763     -12.79943262      12.67751887
C       50.25406393     -12.79943542      12.17453643
F       53.21042958     -12.79942973       8.74496970
F       51.73199971     -12.79943787      14.05413763
C       55.42739764     -11.51947903      10.12168871
C       52.47124030     -11.51948372      10.62453707
C       53.94919308     -11.51947667      12.67758799
C       52.47115938     -11.51947946      12.17460556
F       55.42752503     -11.51947377       8.74503882
F       53.94909517     -11.51948192      14.05420676
C       57.64449310     -10.23952307      10.12175784
C       54.68833575     -10.23952777      10.62460620
C       56.16628854     -10.23952072      12.67765712
C       54.68825484     -10.23952351      12.17467468
F       57.64462049     -10.23951782       8.74510795
F       56.16619063     -10.23952596      14.05427588
C       59.86158856      -8.95956712      10.12182696
C       56.90543121      -8.95957181      10.62467532
C       58.38338400      -8.95956476      12.67772624
C       56.90535030      -8.95956755      12.17474381
F       59.86171595      -8.95956186       8.74517707
F       58.38328608      -8.95957001      14.05434501
C       62.07868402      -7.67961117      10.12189609
C       59.12252667      -7.67961586      10.62474444
C       60.60047945      -7.67960881      12.67779537
C       59.12244575      -7.67961160      12.17481293
F       62.07881140      -7.67960591       8.74524620
F       60.60038154      -7.67961405      14.05441413
C       64.29577947      -6.39965521      10.12196521
C       61.33962212      -6.39965990      10.62481357
C       62.81757491      -6.39965285      12.67786449
C       61.33954121      -6.39965564      12.17488205
F       64.29590686      -6.39964995       8.74531532
F       62.81747700      -6.39965810      14.05448326
C       66.51287493      -5.11969926      10.12203434
C       63.55671758      -5.11970395      10.62488269
C       65.03467037      -5.11969690      12.67793362
C       63.55663667      -5.11969969      12.17495118
F       66.51300232      -5.11969400       8.74538445
F       65.03457246      -5.11970214      14.05455238
C       68.72997039      -3.83974330      10.12210346
C       65.77381304      -3.83974799      10.62495182
C       67.25176582      -3.83974094      12.67800274
C       65.77373213      -3.83974373      12.17502030
F       68.73009777      -3.83973805       8.74545357
F       67.25166791      -3.83974619      14.05462150
C       70.94706584      -2.55978735      10.12217259
C       67.99090849      -2.55979204      10.62502094
C       69.46886128      -2.55978499      12.67807187
C       67.99082758      -2.55978778      12.17508943
F       70.94719323      -2.55978209       8.74552270
F       69.46876337      -2.55979023      14.05469063
C       73.16416130      -1.27983139      10.12224171
C       70.20800395      -1.27983609      10.62509007
C       71.68595674      -1.27982903      12.67814099
C       70.20792304      -1.27983182      12.17515855
F       73.16428869      -1.27982614       8.74559182
F       71.68585883      -1.27983428      14.05475975
C       75.38125676       0.00012456      10.12231083
C       72.42509941       0.00011987      10.62515919
C       73.90305220       0.00012692      12.67821012
C       72.42501850       0.00012413      12.17522768
F       75.38138415       0.00012982       8.74566095
F       73.90295428       0.00012168      14.05482888
C       77.59835221       1.28008052      10.12237996
C       74.64219486       1.28007582      10.62522832
C       76.12014765       1.28008288      12.67827924
C       74.64211395       1.28008009      12.17529680
F       77.59847960       1.28008577       8.74573007
F       76.12004974       1.28007763      14.05489800
C       79.81544767       2.56003647      10.12244908
C       76.85929032       2.56003178      10.62529744
C       78.33724311       2.56003883      12.67834837
C       76.85920941       2.56003604      12.17536593
F       79.81557506       2.56004173       8.74579920
F       78.33714520       2.56003358      14.05496713
C       82.03254313       3.83999243      10.12251821
C       79.07638578       3.83998773      10.62536657
C       80.55433857       3.83999479      12.67841749
C       79.07630487       3.83999200      12.17543505
F       82.03267052       3.83999768       8.74586832
F       80.55424065       3.83998954      14.05503625
C       84.24963858       5.11994838      10.12258733
C       81.29348123       5.11994369      10.62543569
C       82.77143402       5.11995074      12.67848661
C       81.29340032       5.11994795      12.17550418
F       84.24976597       5.11995364       8.74593745
F       82.77133611       5.11994549      14.05510538
C       86.46673404       6.39990434      10.12265646
C       83.51057669       6.39989964      10.62550482
C       84.98852948       6.39990670      12.67855574
C       83.51049578       6.39990391      12.17557330
F       86.46686143       6.39990959       8.74600657
F       84.98843157       6.39990145      14.05517450
C       88.68382950       7.67986029      10.12272558
C       85.72767215       7.67985560      10.62557394
C       87.20562494       7.67986265      12.67862486
C       85.72759124       7.67985986      12.17564243
F       88.68395689       7.67986555       8.74607570
F       87.20552702       7.67985740      14.05524363
C       90.90092495       8.95981625      10.12279471
C       87.94476761       8.95981155      10.62564307
C       89.42272039       8.95981861      12.67869399
C       87.94468669       8.95981581      12.17571155
F       90.90105234       8.95982150       8.74614482
F       89.42262248       8.95981336      14.05531275
C       93.11802041      10.23977220      10.12286383
C       90.16186306      10.23976751      10.62571219
C       91.63981585      10.23977456      12.67876311
C       90.16178215      10.23977177      12.17578068
F       93.11814780      10.23977746       8.74621394
F       91.63971794      10.23976931      14.05538188
C       95.33511587      11.51972816      10.12293296
C       92.37895852      11.51972346      10.62578131
C       93.85691131      11.51973051      12.67883224
C       92.37887761      11.51972772      12.17584980
F       95.33524326      11.51973341       8.74628307
F       93.85681339      11.51972527      14.05545100
C       97.55221133      12.79968411      10.12300208
C       94.59605398      12.79967942      10.62585044
C       96.07400676      12.79968647      12.67890136
C       94.59597306      12.79968368      12.17591892
F       97.55233871      12.79968937       8.74635219
F       96.07390885      12.79968122      14.05552013
C       99.76930678      14.07964006      10.12307121
C       96.81314943      14.07963537      10.62591956
C       98.29110222      14.07964242      12.67897049
C       96.81306852      14.07963963      12.17598805
F       99.76943417      14.07964532       8.74642132
F       98.29100431      14.07963718      14.05558925
C      101.98640224      15.35959602      10.12314033
C       99.03024489      15.35959133      10.62598869
C      100.50819768      15.35959838      12.67903961
C       99.03016398      15.35959559      12.17605717
F      101.98652963      15.35960128       8.74649044
F      100.50809977      15.35959313      14.05565837
C      104.20349770      16.63955197      10.12320946
C      101.24734035      16.63954728      10.62605781
C      102.72529313      16.63955433      12.67910874
C      101.24725944      16.63955154      12.17612630
F      104.20362508      16.63955723       8.74655957
F      102.72519522      16.63954909      14.05572750
C      106.42059315      17.91950793      10.12327858
C      103.46443580      17.91950324      10.62612694
C      104.94238859      17.91951029      12.67917786
C      103.46435489      17.91950750      12.17619542
F      106.42072054      17.91951319       8.74662869
F      104.94229068      17.91950504      14.05579662
C      108.63768861      19.19946388      10.12334770
C      105.68153126      19.19945919      10.62619606
C      107.15948405      19.19946624      12.67924699
C      105.68145035      19.19946345      12.17626455
F      108.63781600      19.19946914       8.74669782
F      107.15938614      19.19946100      14.05586575
C      110.85478407      20.47941984      10.12341683
C      107.89862672      20.47941515      10.62626519
C      109.37657951      20.47942220      12.67931611
C      107.89854581      20.47941941      12.17633367
F      110.85491146      20.47942509       8.74676694
F      109.37648159      20.47941695      14.05593487
C      113.07187952      21.75937579      10.12348595
C      110.11572217      21.75937110      10.62633431
C      111.59367496      21.75937815      12.67938524
C      110.11564126      21.75937536      12.17640280
F      113.07200691      21.75938105       8.74683607
F      111.59357705      21.75937291      14.05600400
C       42.12482151     -21.75911919      10.12127341
C       39.16866416     -21.75912388      10.62412177
C       40.64661695     -21.75911683      12.67717269
C       39.16858325     -21.75911962      12.17419025
F       42.12494890     -21.75911394       8.74462352
F       40.64651904     -21.75912208      14.05379146
C       44.34191697     -20.47916324      10.12134254
C       41.38575962     -20.47916793      10.62419089
C       42.86371241     -20.47916088      12.67724182
C       41.38567871     -20.47916367      12.17425938
F       44.34204436     -20.47915798       8.74469265
F       42.86361449     -20.47916612      14.05386058
C       46.55901242     -19.19920728      10.12141166
C       43.60285507     -19.19921198      10.62426002
C       45.08080786     -19.19920492      12.67731094
C       43.60277416     -19.19920771      12.17432850
F       46.55913981     -19.19920203       8.74476177
F       45.08070995     -19.19921017      14.05392970
C       48.77610788     -17.91925133      10.12148079
C       45.81995053     -17.91925602      10.62432914
C       47.29790332     -17.91924897      12.67738007
C       45.81986962     -17.91925176      12.17439763
F       48.77623527     -17.91924607       8.74483090
F       47.29780541     -17.91925422      14.05399883
C       50.99320334     -16.63929537      10.12154991
C       48.03704599     -16.63930007      10.62439827
C       49.51499878     -16.63929301      12.67744919
C       48.03696508     -16.63929580      12.17446675
F       50.99333073     -16.63929012       8.74490002
F       49.51490086     -16.63929826      14.05406795
C       53.21029879     -15.35933942      10.12161903
C       50.25414145     -15.35934411      10.62446739
C       51.73209423     -15.35933706      12.67751832
C       50.25406053     -15.35933985      12.17453588
F       53.21042618     -15.35933416       8.74496915
F       51.73199632     -15.35934231      14.05413708
C       55.42739425     -14.07938346      10.12168816
C       52.47123690     -14.07938816      10.62453652
C       53.94918969     -14.07938110      12.67758744
C       52.47115599     -14.07938389      12.17460500
F       55.42752164     -14.07937821       8.74503827
F       53.94909178     -14.07938635      14.05420620
C       57.64448971     -12.79942751      10.12175728
C       54.68833236     -12.79943220      10.62460564
C       56.16628515     -12.79942515      12.67765657
C       54.68825145     -12.79942794      12.17467413
F       57.64461710     -12.79942225       8.74510740
F       56.16618723     -12.79943040      14.05427533
C       59.86158517     -11.51947155      10.12182641
C       56.90542782     -11.51947625      10.62467477
C       58.38338060     -11.51946919      12.67772569
C       56.90534690     -11.51947199      12.17474325
F       59.86171255     -11.51946630       8.74517652
F       58.38328269     -11.51947444      14.05434445
C       62.07868062     -10.23951560      10.12189553
C       59.12252327     -10.23952029      10.62474389
C       60.60047606     -10.23951324      12.67779481
C       59.12244236     -10.23951603      12.17481238
F       62.07880801     -10.23951034       8.74524565
F       60.60037815     -10.23951849      14.05441358
C       64.29577608      -8.95955964      10.12196466
C       61.33961873      -8.95956434      10.62481302
C       62.81757152      -8.95955729      12.67786394
C       61.33953782      -8.95956008      12.17488150
F       64.29590347      -8.95955439       8.74531477
F       62.81747361      -8.95956253      14.05448270
C       66.51287154      -7.67960369      10.12203378
C       63.55671419      -7.67960838      10.62488214
C       65.03466697      -7.67960133      12.67793306
C       63.55663328      -7.67960412      12.17495063
F       66.51299892      -7.67959843       8.74538390
F       65.03456906      -7.67960658      14.05455183
C       68.72996699      -6.39964773      10.12210291
C       65.77380964      -6.39965243      10.62495127
C       67.25176243      -6.39964538      12.67800219
C       65.77372873      -6.39964817      12.17501975
F       68.73009438      -6.39964248       8.74545302
F       67.25166452      -6.39965062      14.05462095
C       70.94706245      -5.11969178      10.12217203
C       67.99090510      -5.11969647      10.62502039
C       69.46885789      -5.11968942      12.67807131
C       67.99082419      -5.11969221      12.17508888
F       70.94718984      -5.11968652       8.74552214
F       69.46875998      -5.11969467      14.05469008
C       73.16415791      -3.83973583      10.12224116
C       70.20800056      -3.83974052      10.62508951
C       71.68595335      -3.83973347      12.67814044
C       70.20791965      -3.83973626      12.17515800
F       73.16428530      -3.83973057       8.74559127
F       71.68585543      -3.83973871      14.05475920
C       75.38125336      -2.55977987      10.12231028
C       72.42509601      -2.55978456      10.62515864
C       73.90304880      -2.55977751      12.67820956
C       72.42501510      -2.55978030      12.17522712
F       75.38138075      -2.55977461       8.74566039
F       73.90295089      -2.55978276      14.05482833
C       77.59834882      -1.27982392      10.12237941
C       74.64219147      -1.27982861      10.62522776
C       76.12014426      -1.27982156      12.67827869
C       74.64211056      -1.27982435      12.17529625
F       77.59847621      -1.27981866       8.74572952
F       76.12004635      -1.27982680      14.05489745
C       79.81544428       0.00013204      10.12244853
C       76.85928693       0.00012735      10.62529689
C       78.33723972       0.00013440      12.67834781
C       76.85920602       0.00013161      12.17536537
F       79.81557167       0.00013729       8.74579864
F       78.33714180       0.00012915      14.05496657
C       82.03253973       1.28008799      10.12251766
C       79.07638238       1.28008330      10.62536601
C       80.55433517       1.28009035      12.67841694
C       79.07630147       1.28008756      12.17543450
F       82.03266712       1.28009325       8.74586777
F       80.55423726       1.28008511      14.05503570
C       84.24963519       2.56004395      10.12258678
C       81.29347784       2.56003925      10.62543514
C       82.77143063       2.56004631      12.67848606
C       81.29339693       2.56004352      12.17550362
F       84.24976258       2.56004920       8.74593689
F       82.77133272       2.56004106      14.05510482
C       86.46673065       3.83999990      10.12265590
C       83.51057330       3.83999521      10.62550426
C       84.98852609       3.84000226      12.67855519
C       83.51049239       3.83999947      12.17557275
F       86.46685804       3.84000516       8.74600602
F       84.98842817       3.83999702      14.05517395
C       88.68382610       5.11995586      10.12272503
C       85.72766876       5.11995116      10.62557339
C       87.20562154       5.11995822      12.67862431
C       85.72758784       5.11995543      12.17564187
F       88.68395349       5.11996111       8.74607514
F       87.20552363       5.11995297      14.05524307
C       90.90092156       6.39991181      10.12279415
C       87.94476421       6.39990712      10.62564251
C       89.42271700       6.39991417      12.67869344
C       87.94468330       6.39991138      12.17571100
F       90.90104895       6.39991707       8.74614427
F       89.42261909       6.39990892      14.05531220
C       93.11801702       7.67986777      10.12286328
C       90.16185967       7.67986307      10.62571164
C       91.63981246       7.67987013      12.67876256
C       90.16177876       7.67986734      12.17578012
F       93.11814441       7.67987302       8.74621339
F       91.63971454       7.67986488      14.05538132
C       95.33511248       8.95982372      10.12293240
C       92.37895513       8.95981903      10.62578076
C       93.85690791       8.95982608      12.67883168
C       92.37887421       8.95982329      12.17584925
F       95.33523986       8.95982898       8.74628252
F       93.85681000       8.95982083      14.05545045
C       97.55220793      10.23977968      10.12300153
C       94.59605058      10.23977498      10.62584989
C       96.07400337      10.23978204      12.67890081
C       94.59596967      10.23977925      12.17591837
F       97.55233532      10.23978493       8.74635164
F       96.07390546      10.23977679      14.05551957
C       99.76930339      11.51973563      10.12307065
C       96.81314604      11.51973094      10.62591901
C       98.29109883      11.51973799      12.67896993
C       96.81306513      11.51973520      12.17598750
F       99.76943078      11.51974089       8.74642077
F       98.29100092      11.51973274      14.05558870
C      101.98639885      12.79969159      10.12313978
C       99.03024150      12.79968689      10.62598814
C      100.50819428      12.79969395      12.67903906
C       99.03016059      12.79969115      12.17605662
F      101.98652623      12.79969684       8.74648989
F      100.50809637      12.79968870      14.05565782
C      104.20349430      14.07964754      10.12320890
C      101.24733695      14.07964285      10.62605726
C      102.72528974      14.07964990      12.67910818
C      101.24725604      14.07964711      12.17612575
F      104.20362169      14.07965280       8.74655901
F      102.72519183      14.07964465      14.05572695
C      106.42058976      15.35960350      10.12327803
C      103.46443241      15.35959880      10.62612638
C      104.94238520      15.35960585      12.67917731
C      103.46435150      15.35960306      12.17619487
F      106.42071715      15.35960875       8.74662814
F      104.94228729      15.35960061      14.05579607
C      108.63768522      16.63955945      10.12334715
C      105.68152787      16.63955476      10.62619551
C      107.15948066      16.63956181      12.67924643
C      105.68144696      16.63955902      12.17626400
F      108.63781261      16.63956471       8.74669726
F      107.15938274      16.63955656      14.05586520
C      110.85478067      17.91951540      10.12341628
C      107.89862332      17.91951071      10.62626463
C      109.37657611      17.91951776      12.67931556
C      107.89854241      17.91951497      12.17633312
F      110.85490806      17.91952066       8.74676639
F      109.37647820      17.91951252      14.05593432
C      113.07187613      19.19947136      10.12348540
C      110.11571878      19.19946667      10.62633376
C      111.59367157      19.19947372      12.67938468
C      110.11563787      19.19947093      12.17640224
F      113.07200352      19.19947662       8.74683551
F      111.59357366      19.19946847      14.05600345
C      115.28897159      20.47942731      10.12355453
C      112.33281424      20.47942262      10.62640288
C      113.81076703      20.47942967      12.67945381
C      112.33273333      20.47942688      12.17647137
F      115.28909898      20.47943257       8.74690464
F      113.81066911      20.47942443      14.05607257
C       44.34191357     -23.03906767      10.12134198
C       41.38575622     -23.03907236      10.62419034
C       42.86370901     -23.03906531      12.67724126
C       41.38567531     -23.03906810      12.17425883
F       44.34204096     -23.03906241       8.74469210
F       42.86361110     -23.03907056      14.05386003
C       46.55900903     -21.75911172      10.12141111
C       43.60285168     -21.75911641      10.62425947
C       45.08080447     -21.75910936      12.67731039
C       43.60277077     -21.75911215      12.17432795
F       46.55913642     -21.75910646       8.74476122
F       45.08070656     -21.75911460      14.05392915
C       48.77610449     -20.47915576      10.12148023
C       45.81994714     -20.47916045      10.62432859
C       47.29789993     -20.47915340      12.67737951
C       45.81986623     -20.47915619      12.17439708
F       48.77623188     -20.47915051       8.74483034
F       47.29780201     -20.47915865      14.05399828
C       50.99319994     -19.19919981      10.12154936
C       48.03704260     -19.19920450      10.62439771
C       49.51499538     -19.19919745      12.67744864
C       48.03696168     -19.19920024      12.17446620
F       50.99332733     -19.19919455       8.74489947
F       49.51489747     -19.19920269      14.05406740
C       53.21029540     -17.91924385      10.12161848
C       50.25413805     -17.91924854      10.62446684
C       51.73209084     -17.91924149      12.67751776
C       50.25405714     -17.91924428      12.17453533
F       53.21042279     -17.91923860       8.74496859
F       51.73199293     -17.91924674      14.05413653
C       55.42739086     -16.63928790      10.12168761
C       52.47123351     -16.63929259      10.62453596
C       53.94918630     -16.63928554      12.67758689
C       52.47115260     -16.63928833      12.17460445
F       55.42751825     -16.63928264       8.74503772
F       53.94908838     -16.63929078      14.05420565
C       57.64448632     -15.35933194      10.12175673
C       54.68832897     -15.35933664      10.62460509
C       56.16628175     -15.35932958      12.67765601
C       54.68824805     -15.35933237      12.17467357
F       57.64461370     -15.35932669       8.74510684
F       56.16618384     -15.35933483      14.05427478
C       59.86158177     -14.07937599      10.12182586
C       56.90542442     -14.07938068      10.62467421
C       58.38337721     -14.07937363      12.67772514
C       56.90534351     -14.07937642      12.17474270
F       59.86170916     -14.07937073       8.74517597
F       58.38327930     -14.07937888      14.05434390
C       62.07867723     -12.79942003      10.12189498
C       59.12251988     -12.79942473      10.62474334
C       60.60047267     -12.79941767      12.67779426
C       59.12243897     -12.79942046      12.17481182
F       62.07880462     -12.79941478       8.74524509
F       60.60037476     -12.79942292      14.05441302
C       64.29577269     -11.51946408      10.12196411
C       61.33961534     -11.51946877      10.62481246
C       62.81756812     -11.51946172      12.67786339
C       61.33953443     -11.51946451      12.17488095
F       64.29590007     -11.51945882       8.74531422
F       62.81747021     -11.51946697      14.05448215
C       66.51286814     -10.23950812      10.12203323
C       63.55671079     -10.23951282      10.62488159
C       65.03466358     -10.23950576      12.67793251
C       63.55662988     -10.23950855      12.17495007
F       66.51299553     -10.23950287       8.74538334
F       65.03456567     -10.23951101      14.05455127
C       68.72996360      -8.95955217      10.12210235
C       65.77380625      -8.95955686      10.62495071
C       67.25175904      -8.95954981      12.67800164
C       65.77372534      -8.95955260      12.17501920
F       68.73009099      -8.95954691       8.74545247
F       67.25166113      -8.95955506      14.05462040
C       70.94705906      -7.67959621      10.12217148
C       67.99090171      -7.67960091      10.62501984
C       69.46885450      -7.67959385      12.67807076
C       67.99082080      -7.67959665      12.17508832
F       70.94718645      -7.67959096       8.74552159
F       69.46875658      -7.67959910      14.05468952
C       73.16415451      -6.39964026      10.12224060
C       70.20799716      -6.39964495      10.62508896
C       71.68594995      -6.39963790      12.67813988
C       70.20791625      -6.39964069      12.17515745
F       73.16428190      -6.39963500       8.74559072
F       71.68585204      -6.39964315      14.05475865
C       75.38124997      -5.11968430      10.12230973
C       72.42509262      -5.11968900      10.62515809
C       73.90304541      -5.11968195      12.67820901
C       72.42501171      -5.11968474      12.17522657
F       75.38137736      -5.11967905       8.74565984
F       73.90294750      -5.11968719      14.05482777
C       77.59834543      -3.83972835      10.12237885
C       74.64218808      -3.83973304      10.62522721
C       76.12014087      -3.83972599      12.67827813
C       74.64210717      -3.83972878      12.17529570
F       77.59847282      -3.83972309       8.74572897
F       76.12004295      -3.83973124      14.05489690
C       79.81544088      -2.55977239      10.12244798
C       76.85928353      -2.55977709      10.62529634
C       78.33723632      -2.55977004      12.67834726
C       76.85920262      -2.55977283      12.17536482
F       79.81556827      -2.55976714       8.74579809
F       78.33713841      -2.55977528      14.05496602
C       82.03253634      -1.27981644      10.12251710
C       79.07637899      -1.27982113      10.62536546
C       80.55433178      -1.27981408      12.67841638
C       79.07629808      -1.27981687      12.17543395
F       82.03266373      -1.27981118       8.74586721
F       80.55423387      -1.27981933      14.05503515
C       84.24963180       0.00013951      10.12258623
C       81.29347445       0.00013482      10.62543458
C       82.77142724       0.00014187      12.67848551
C       81.29339354       0.00013908      12.17550307
F       84.24975919       0.00014477       8.74593634
F       82.77132932       0.00013663      14.05510427
C       86.46672725       1.28009547      10.12265535
C       83.51056991       1.28009078      10.62550371
C       84.98852269       1.28009783      12.67855463
C       83.51048899       1.28009504      12.17557220
F       86.46685464       1.28010073       8.74600546
F       84.98842478       1.28009258      14.05517340
C       88.68382271       2.56005142      10.12272448
C       85.72766536       2.56004673      10.62557283
C       87.20561815       2.56005378      12.67862376
C       85.72758445       2.56005099      12.17564132
F       88.68395010       2.56005668       8.74607459
F       87.20552024       2.56004854      14.05524252
C       90.90091817       3.84000738      10.12279360
C       87.94476082       3.84000269      10.62564196
C       89.42271361       3.84000974      12.67869288
C       87.94467991       3.84000695      12.17571044
F       90.90104556       3.84001263       8.74614371
F       89.42261569       3.84000449      14.05531165
C       93.11801363       5.11996333      10.12286273
C       90.16185628       5.11995864      10.62571108
C       91.63980906       5.11996569      12.67876201
C       90.16177536       5.11996290      12.17577957
F       93.11814101       5.11996859       8.74621284
F       91.63971115       5.11996045      14.05538077
C       95.33510908       6.39991929      10.12293185
C       92.37895173       6.39991459      10.62578021
C       93.85690452       6.39992165      12.67883113
C       92.37887082       6.39991886      12.17584869
F       95.33523647       6.39992454       8.74628196
F       93.85680661       6.39991640      14.05544989
C       97.55220454       7.67987524      10.12300098
C       94.59604719       7.67987055      10.62584933
C       96.07399998       7.67987760      12.67890026
C       94.59596628       7.67987481      12.17591782
F       97.55233193       7.67988050       8.74635109
F       96.07390207       7.67987236      14.05551902
C       99.76930000       8.95983120      10.12307010
C       96.81314265       8.95982650      10.62591846
C       98.29109543       8.95983356      12.67896938
C       96.81306174       8.95983077      12.17598694
F       99.76942738       8.95983645       8.74642021
F       98.29099752       8.95982831      14.05558814
C      101.98639545      10.23978715      10.12313922
C       99.03023810      10.23978246      10.62598758
C      100.50819089      10.23978951      12.67903851
C       99.03015719      10.23978672      12.17605607
F      101.98652284      10.23979241       8.74648934
F      100.50809298      10.23978426      14.05565727
C      104.20349091      11.51974311      10.12320835
C      101.24733356      11.51973841      10.62605671
C      102.72528635      11.51974547      12.67910763
C      101.24725265      11.51974268      12.17612519
F      104.20361830      11.51974836       8.74655846
F      102.72518844      11.51974022      14.05572639
C      106.42058637      12.79969906      10.12327747
C      103.46442902      12.79969437      10.62612583
C      104.94238181      12.79970142      12.67917675
C      103.46434811      12.79969863      12.17619432
F      106.42071376      12.79970432       8.74662759
F      104.94228389      12.79969617      14.05579552
C      108.63768182      14.07965502      10.12334660
C      105.68152447      14.07965032      10.62619496
C      107.15947726      14.07965738      12.67924588
C      105.68144356      14.07965459      12.17626344
F      108.63780921      14.07966027       8.74669671
F      107.15937935      14.07965213      14.05586464
C      110.85477728      15.35961097      10.12341572
C      107.89861993      15.35960628      10.62626408
C      109.37657272      15.35961333      12.67931500
C      107.89853902      15.35961054      12.17633257
F      110.85490467      15.35961623       8.74676584
F      109.37647481      15.35960808      14.05593377
C      113.07187274      16.63956693      10.12348485
C      110.11571539      16.63956223      10.62633321
C      111.59366818      16.63956929      12.67938413
C      110.11563448      16.63956649      12.17640169
F      113.07200013      16.63957218       8.74683496
F      111.59357026      16.63956404      14.05600289
C      115.28896819      17.91952288      10.12355397
C      112.33281084      17.91951819      10.62640233
C      113.81076363      17.91952524      12.67945325
C      112.33272993      17.91952245      12.17647082
F      115.28909558      17.91952814       8.74690408
F      113.81066572      17.91951999      14.05607202
C      117.50606365      19.19947884      10.12362310
C      114.54990630      19.19947414      10.62647146
C      116.02785909      19.19948119      12.67952238
C      114.54982539      19.19947840      12.17653994
F      117.50619104      19.19948409       8.74697321
F      116.02776118      19.19947595      14.05614114
C       46.55900564     -24.31901615      10.12141055
C       43.60284829     -24.31902084      10.62425891
C       45.08080108     -24.31901379      12.67730984
C       43.60276738     -24.31901658      12.17432740
F       46.55913303     -24.31901089       8.74476067
F       45.08070316     -24.31901904      14.05392860
C       48.77610110     -23.03906019      10.12147968
C       45.81994375     -23.03906489      10.62432804
C       47.29789653     -23.03905784      12.67737896
C       45.81986283     -23.03906063      12.17439652
F       48.77622848     -23.03905494       8.74482979
F       47.29779862     -23.03906308      14.05399772
C       50.99319655     -21.75910424      10.12154880
C       48.03703920     -21.75910893      10.62439716
C       49.51499199     -21.75910188      12.67744808
C       48.03695829     -21.75910467      12.17446565
F       50.99332394     -21.75909898       8.74489892
F       49.51489408     -21.75910713      14.05406685
C       53.21029201     -20.47914829      10.12161793
C       50.25413466     -20.47915298      10.62446629
C       51.73208745     -20.47914593      12.67751721
C       50.25405375     -20.47914872      12.17453477
F       53.21041940     -20.47914303       8.74496804
F       51.73198954     -20.47915117      14.05413597
C       55.42738747     -19.19919233      10.12168705
C       52.47123012     -19.19919702      10.62453541
C       53.94918290     -19.19918997      12.67758633
C       52.47114921     -19.19919276      12.17460390
F       55.42751485     -19.19918707       8.74503717
F       53.94908499     -19.19919522      14.05420510
C       57.64448292     -17.91923638      10.12175618
C       54.68832557     -17.91924107      10.62460454
C       56.16627836     -17.91923402      12.67765546
C       54.68824466     -17.91923681      12.17467302
F       57.64461031     -17.91923112       8.74510629
F       56.16618045     -17.91923926      14.05427422
C       59.86157838     -16.63928042      10.12182530
C       56.90542103     -16.63928511      10.62467366
C       58.38337382     -16.63927806      12.67772458
C       56.90534012     -16.63928085      12.17474215
F       59.86170577     -16.63927517       8.74517541
F       58.38327591     -16.63928331      14.05434335
C       62.07867384     -15.35932447      10.12189443
C       59.12251649     -15.35932916      10.62474278
C       60.60046928     -15.35932211      12.67779371
C       59.12243558     -15.35932490      12.17481127
F       62.07880122     -15.35931921       8.74524454
F       60.60037136     -15.35932735      14.05441247
C       64.29576929     -14.07936851      10.12196355
C       61.33961194     -14.07937321      10.62481191
C       62.81756473     -14.07936615      12.67786283
C       61.33953103     -14.07936894      12.17488040
F       64.29589668     -14.07936326       8.74531366
F       62.81746682     -14.07937140      14.05448160
C       66.51286475     -12.79941256      10.12203268
C       63.55670740     -12.79941725      10.62488103
C       65.03466019     -12.79941020      12.67793196
C       63.55662649     -12.79941299      12.17494952
F       66.51299214     -12.79940730       8.74538279
F       65.03456228     -12.79941544      14.05455072
C       68.72996021     -11.51945660      10.12210180
C       65.77380286     -11.51946130      10.62495016
C       67.25175565     -11.51945424      12.67800108
C       65.77372195     -11.51945703      12.17501864
F       68.73008760     -11.51945135       8.74545191
F       67.25165773     -11.51945949      14.05461985
C       70.94705566     -10.23950065      10.12217093
C       67.99089831     -10.23950534      10.62501928
C       69.46885110     -10.23949829      12.67807021
C       67.99081740     -10.23950108      12.17508777
F       70.94718305     -10.23949539       8.74552104
F       69.46875319     -10.23950354      14.05468897
C       73.16415112      -8.95954469      10.12224005
C       70.20799377      -8.95954939      10.62508841
C       71.68594656      -8.95954233      12.67813933
C       70.20791286      -8.95954512      12.17515689
F       73.16427851      -8.95953944       8.74559016
F       71.68584865      -8.95954758      14.05475809
C       75.38124658      -7.67958874      10.12230918
C       72.42508923      -7.67959343      10.62515753
C       73.90304202      -7.67958638      12.67820846
C       72.42500832      -7.67958917      12.17522602
F       75.38137397      -7.67958348       8.74565929
F       73.90294410      -7.67959163      14.05482722
C       77.59834203      -6.39963278      10.12237830
C       74.64218469      -6.39963748      10.62522666
C       76.12013747      -6.39963042      12.67827758
C       74.64210377      -6.39963321      12.17529514
F       77.59846942      -6.39962753       8.74572841
F       76.12003956      -6.39963567      14.05489634
C       79.81543749      -5.11967683      10.12244742
C       76.85928014      -5.11968152      10.62529578
C       78.33723293      -5.11967447      12.67834671
C       76.85919923      -5.11967726      12.17536427
F       79.81556488      -5.11967157       8.74579754
F       78.33713502      -5.11967972      14.05496547
C       82.03253295      -3.83972087      10.12251655
C       79.07637560      -3.83972557      10.62536491
C       80.55432839      -3.83971851      12.67841583
C       79.07629469      -3.83972131      12.17543339
F       82.03266034      -3.83971562       8.74586666
F       80.55423047      -3.83972376      14.05503459
C       84.24962841      -2.55976492      10.12258567
C       81.29347106      -2.55976961      10.62543403
C       82.77142384      -2.55976256      12.67848495
C       81.29339014      -2.55976535      12.17550252
F       84.24975579      -2.55975966       8.74593579
F       82.77132593      -2.55976781      14.05510372
C       86.46672386      -1.27980896      10.12265480
C       83.51056651      -1.27981366      10.62550316
C       84.98851930      -1.27980661      12.67855408
C       83.51048560      -1.27980940      12.17557164
F       86.46685125      -1.27980371       8.74600491
F       84.98842139      -1.27981185      14.05517284
C       88.68381932       0.00014699      10.12272392
C       85.72766197       0.00014230      10.62557228
C       87.20561476       0.00014935      12.67862320
C       85.72758106       0.00014656      12.17564077
F       88.68394671       0.00015225       8.74607404
F       87.20551685       0.00014410      14.05524197
C       90.90091478       1.28010294      10.12279305
C       87.94475743       1.28009825      10.62564141
C       89.42271021       1.28010530      12.67869233
C       87.94467651       1.28010251      12.17570989
F       90.90104216       1.28010820       8.74614316
F       89.42261230       1.28010006      14.05531109
C       93.11801023       2.56005890      10.12286217
C       90.16185288       2.56005421      10.62571053
C       91.63980567       2.56006126      12.67876145
C       90.16177197       2.56005847      12.17577902
F       93.11813762       2.56006416       8.74621229
F       91.63970776       2.56005601      14.05538022
C       95.33510569       3.84001485      10.12293130
C       92.37894834       3.84001016      10.62577966
C       93.85690113       3.84001721      12.67883058
C       92.37886743       3.84001442      12.17584814
F       95.33523308       3.84002011       8.74628141
F       93.85680322       3.84001197      14.05544934
C       97.55220115       5.11997081      10.12300042
C       94.59604380       5.11996612      10.62584878
C       96.07399659       5.11997317      12.67889970
C       94.59596289       5.11997038      12.17591727
F       97.55232853       5.11997607       8.74635053
F       96.07389867       5.11996792      14.05551847
C       99.76929660       6.39992676      10.12306955
C       96.81313925       6.39992207      10.62591790
C       98.29109204       6.39992912      12.67896883
C       96.81305834       6.39992633      12.17598639
F       99.76942399       6.39993202       8.74641966
F       98.29099413       6.39992388      14.05558759
C      101.98639206       7.67988272      10.12313867
C       99.03023471       7.67987803      10.62598703
C      100.50818750       7.67988508      12.67903795
C       99.03015380       7.67988229      12.17605551
F      101.98651945       7.67988797       8.74648878
F      100.50808959       7.67987983      14.05565672
C      104.20348752       8.95983867      10.12320780
C      101.24733017       8.95983398      10.62605615
C      102.72528296       8.95984103      12.67910708
C      101.24724926       8.95983824      12.17612464
F      104.20361491       8.95984393       8.74655791
F      102.72518504       8.95983579      14.05572584
C      106.42058297      10.23979463      10.12327692
C      103.46442562      10.23978993      10.62612528
C      104.94237841      10.23979699      12.67917620
C      103.46434471      10.23979420      12.17619376
F      106.42071036      10.23979988       8.74662703
F      104.94228050      10.23979174      14.05579496
C      108.63767843      11.51975058      10.12334605
C      105.68152108      11.51974589      10.62619440
C      107.15947387      11.51975294      12.67924533
C      105.68144017      11.51975015      12.17626289
F      108.63780582      11.51975584       8.74669616
F      107.15937596      11.51974770      14.05586409
C      110.85477389      12.79970654      10.12341517
C      107.89861654      12.79970184      10.62626353
C      109.37656933      12.79970890      12.67931445
C      107.89853563      12.79970611      12.17633201
F      110.85490128      12.79971179       8.74676528
F      109.37647141      12.79970365      14.05593321
C      113.07186934      14.07966249      10.12348429
C      110.11571199      14.07965780      10.62633265
C      111.59366478      14.07966485      12.67938358
C      110.11563108      14.07966206      12.17640114
F      113.07199673      14.07966775       8.74683441
F      111.59356687      14.07965960      14.05600234
C      115.28896480      15.35961845      10.12355342
C      112.33280745      15.35961375      10.62640178
C      113.81076024      15.35962081      12.67945270
C      112.33272654      15.35961802      12.17647026
F      115.28909219      15.35962370       8.74690353
F      113.81066233      15.35961556      14.05607146
C      117.50606026      16.63957440      10.12362254
C      114.54990291      16.63956971      10.62647090
C      116.02785570      16.63957676      12.67952183
C      114.54982200      16.63957397      12.17653939
F      117.50618765      16.63957966       8.74697266
F      116.02775778      16.63957151      14.05614059
C      119.72315571      17.91953036      10.12369167
C      116.76699837      17.91952566      10.62654003
C      118.24495115      17.91953272      12.67959095
C      116.76691745      17.91952993      12.17660851
F      119.72328310      17.91953561       8.74704178
F      118.24485324      17.91952747      14.05620971
C       48.77609770     -25.59896463      10.12147913
C       45.81994035     -25.59896932      10.62432748
C       47.29789314     -25.59896227      12.67737841
C       45.81985944     -25.59896506      12.17439597
F       48.77622509     -25.59895937       8.74482924
F       47.29779523     -25.59896752      14.05399717
C       50.99319316     -24.31900867      10.12154825
C       48.03703581     -24.31901337      10.62439661
C       49.51498860     -24.31900631      12.67744753
C       48.03695490     -24.31900911      12.17446509
F       50.99332055     -24.31900342       8.74489836
F       49.51489069     -24.31901156      14.05406629
C       53.21028862     -23.03905272      10.12161738
C       50.25413127     -23.03905741      10.62446573
C       51.73208405     -23.03905036      12.67751666
C       50.25405036     -23.03905315      12.17453422
F       53.21041600     -23.03904746       8.74496749
F       51.73198614     -23.03905561      14.05413542
C       55.42738407     -21.75909676      10.12168650
C       52.47122672     -21.75910146      10.62453486
C       53.94917951     -21.75909441      12.67758578
C       52.47114581     -21.75909720      12.17460334
F       55.42751146     -21.75909151       8.74503661
F       53.94908160     -21.75909965      14.05420454
C       57.64447953     -20.47914081      10.12175562
C       54.68832218     -20.47914550      10.62460398
C       56.16627497     -20.47913845      12.67765491
C       54.68824127     -20.47914124      12.17467247
F       57.64460692     -20.47913555       8.74510574
F       56.16617706     -20.47914370      14.05427367
C       59.86157499     -19.19918485      10.12182475
C       56.90541764     -19.19918955      10.62467311
C       58.38337043     -19.19918250      12.67772403
C       56.90533673     -19.19918529      12.17474159
F       59.86170238     -19.19917960       8.74517486
F       58.38327251     -19.19918774      14.05434279
C       62.07867044     -17.91922890      10.12189387
C       59.12251309     -17.91923359      10.62474223
C       60.60046588     -17.91922654      12.67779316
C       59.12243218     -17.91922933      12.17481072
F       62.07879783     -17.91922364       8.74524399
F       60.60036797     -17.91923179      14.05441192
C       64.29576590     -16.63927295      10.12196300
C       61.33960855     -16.63927764      10.62481136
C       62.81756134     -16.63927059      12.67786228
C       61.33952764     -16.63927338      12.17487984
F       64.29589329     -16.63926769       8.74531311
F       62.81746343     -16.63927583      14.05448104
C       66.51286136     -15.35931699      10.12203212
C       63.55670401     -15.35932168      10.62488048
C       65.03465680     -15.35931463      12.67793140
C       63.55662310     -15.35931742      12.17494897
F       66.51298875     -15.35931173       8.74538224
F       65.03455888     -15.35931988      14.05455017
C       68.72995681     -14.07936104      10.12210125
C       65.77379946     -14.07936573      10.62494961
C       67.25175225     -14.07935868      12.67800053
C       65.77371855     -14.07936147      12.17501809
F       68.73008420     -14.07935578       8.74545136
F       67.25165434     -14.07936392      14.05461929
C       70.94705227     -12.79940508      10.12217037
C       67.99089492     -12.79940977      10.62501873
C       69.46884771     -12.79940272      12.67806965
C       67.99081401     -12.79940551      12.17508722
F       70.94717966     -12.79939983       8.74552049
F       69.46874980     -12.79940797      14.05468842
C       73.16414773     -11.51944913      10.12223950
C       70.20799038     -11.51945382      10.62508786
C       71.68594317     -11.51944677      12.67813878
C       70.20790947     -11.51944956      12.17515634
F       73.16427512     -11.51944387       8.74558961
F       71.68584525     -11.51945201      14.05475754
C       75.38124318     -10.23949317      10.12230862
C       72.42508584     -10.23949787      10.62515698
C       73.90303862     -10.23949081      12.67820790
C       72.42500492     -10.23949360      12.17522547
F       75.38137057     -10.23948792       8.74565873
F       73.90294071     -10.23949606      14.05482667
C       77.59833864      -8.95953722      10.12237775
C       74.64218129      -8.95954191      10.62522610
C       76.12013408      -8.95953486      12.67827703
C       74.64210038      -8.95953765      12.17529459
F       77.59846603      -8.95953196       8.74572786
F       76.12003617      -8.95954010      14.05489579
C       79.81543410      -7.67958126      10.12244687
C       76.85927675      -7.67958596      10.62529523
C       78.33722954      -7.67957890      12.67834615
C       76.85919584      -7.67958169      12.17536371
F       79.81556149      -7.67957601       8.74579698
F       78.33713162      -7.67958415      14.05496492
C       82.03252956      -6.39962531      10.12251600
C       79.07637221      -6.39963000      10.62536435
C       80.55432499      -6.39962295      12.67841528
C       79.07629129      -6.39962574      12.17543284
F       82.03265694      -6.39962005       8.74586611
F       80.55422708      -6.39962820      14.05503404
C       84.24962501      -5.11966935      10.12258512
C       81.29346766      -5.11967405      10.62543348
C       82.77142045      -5.11966699      12.67848440
C       81.29338675      -5.11966978      12.17550196
F       84.24975240      -5.11966410       8.74593523
F       82.77132254      -5.11967224      14.05510316
C       86.46672047      -3.83971340      10.12265425
C       83.51056312      -3.83971809      10.62550260
C       84.98851591      -3.83971104      12.67855353
C       83.51048221      -3.83971383      12.17557109
F       86.46684786      -3.83970814       8.74600436
F       84.98841800      -3.83971629      14.05517229
C       88.68381593      -2.55975744      10.12272337
C       85.72765858      -2.55976214      10.62557173
C       87.20561136      -2.55975508      12.67862265
C       85.72757767      -2.55975787      12.17564021
F       88.68394331      -2.55975219       8.74607348
F       87.20551345      -2.55976033      14.05524141
C       90.90091138      -1.27980149      10.12279249
C       87.94475403      -1.27980618      10.62564085
C       89.42270682      -1.27979913      12.67869178
C       87.94467312      -1.27980192      12.17570934
F       90.90103877      -1.27979623       8.74614261
F       89.42260891      -1.27980438      14.05531054
C       93.11800684       0.00015447      10.12286162
C       90.16184949       0.00014977      10.62570998
C       91.63980228       0.00015683      12.67876090
C       90.16176858       0.00015403      12.17577846
F       93.11813423       0.00015972       8.74621173
F       91.63970437       0.00015158      14.05537966
C       95.33510230       1.28011042      10.12293074
C       92.37894495       1.28010573      10.62577910
C       93.85689774       1.28011278      12.67883003
C       92.37886404       1.28010999      12.17584759
F       95.33522968       1.28011568       8.74628086
F       93.85679982       1.28010753      14.05544879
C       97.55219775       2.56006638      10.12299987
C       94.59604040       2.56006168      10.62584823
C       96.07399319       2.56006873      12.67889915
C       94.59595949       2.56006594      12.17591671
F       97.55232514       2.56007163       8.74634998
F       96.07389528       2.56006349      14.05551791
C       99.76929321       3.84002233      10.12306899
C       96.81313586       3.84001764      10.62591735
C       98.29108865       3.84002469      12.67896827
C       96.81305495       3.84002190      12.17598584
F       99.76942060       3.84002759       8.74641911
F       98.29099074       3.84001944      14.05558704
C      101.98638867       5.11997828      10.12313812
C       99.03023132       5.11997359      10.62598648
C      100.50818411       5.11998064      12.67903740
C       99.03015041       5.11997785      12.17605496
F      101.98651606       5.11998354       8.74648823
F      100.50808619       5.11997540      14.05565616
C      104.20348412       6.39993424      10.12320724
C      101.24732677       6.39992955      10.62605560
C      102.72527956       6.39993660      12.67910652
C      101.24724586       6.39993381      12.17612409
F      104.20361151       6.39993950       8.74655736
F      102.72518165       6.39993135      14.05572529
C      106.42057958       7.67989019      10.12327637
C      103.46442223       7.67988550      10.62612473
C      104.94237502       7.67989255      12.67917565
C      103.46434132       7.67988976      12.17619321
F      106.42070697       7.67989545       8.74662648
F      104.94227711       7.67988731      14.05579441
C      108.63767504       8.95984615      10.12334549
C      105.68151769       8.95984146      10.62619385
C      107.15947048       8.95984851      12.67924477
C      105.68143678       8.95984572      12.17626234
F      108.63780243       8.95985140       8.74669560
F      107.15937256       8.95984326      14.05586354
C      110.85477049      10.23980210      10.12341462
C      107.89861315      10.23979741      10.62626297
C      109.37656593      10.23980446      12.67931390
C      107.89853223      10.23980167      12.17633146
F      110.85489788      10.23980736       8.74676473
F      109.37646802      10.23979922      14.05593266
C      113.07186595      11.51975806      10.12348374
C      110.11570860      11.51975337      10.62633210
C      111.59366139      11.51976042      12.67938302
C      110.11562769      11.51975763      12.17640058
F      113.07199334      11.51976331       8.74683385
F      111.59356348      11.51975517      14.05600179
C      115.28896141      12.79971401      10.12355287
C      112.33280406      12.79970932      10.62640122
C      113.81075685      12.79971637      12.67945215
C      112.33272315      12.79971358      12.17646971
F      115.28908880      12.79971927       8.74690298
F      113.81065893      12.79971113      14.05607091
C      117.50605687      14.07966997      10.12362199
C      114.54989952      14.07966527      10.62647035
C      116.02785230      14.07967233      12.67952127
C      114.54981860      14.07966954      12.17653883
F      117.50618425      14.07967522       8.74697210
F      116.02775439      14.07966708      14.05614004
C      119.72315232      15.35962592      10.12369112
C      116.76699497      15.35962123      10.62653947
C      118.24494776      15.35962828      12.67959040
C      116.76691406      15.35962549      12.17660796
F      119.72327971      15.35963118       8.74704123
F      118.24484985      15.35962304      14.05620916
C      121.94024778      16.63958188      10.12376024
C      118.98409043      16.63957718      10.62660860
C      120.46204322      16.63958424      12.67965952
C      118.98400952      16.63958145      12.17667708
F      121.94037517      16.63958713       8.74711035
F      120.46194531      16.63957899      14.05627828
C       50.99318977     -26.87891311      10.12154770
C       48.03703242     -26.87891780      10.62439606
C       49.51498520     -26.87891075      12.67744698
C       48.03695151     -26.87891354      12.17446454
F       50.99331715     -26.87890785       8.74489781
F       49.51488729     -26.87891600      14.05406574
C       53.21028522     -25.59895715      10.12161682
C       50.25412787     -25.59896185      10.62446518
C       51.73208066     -25.59895479      12.67751610
C       50.25404696     -25.59895758      12.17453367
F       53.21041261     -25.59895190       8.74496693
F       51.73198275     -25.59896004      14.05413487
C       55.42738068     -24.31900120      10.12168595
C       52.47122333     -24.31900589      10.62453430
C       53.94917612     -24.31899884      12.67758523
C       52.47114242     -24.31900163      12.17460279
F       55.42750807     -24.31899594       8.74503606
F       53.94907821     -24.31900409      14.05420399
C       57.64447614     -23.03904524      10.12175507
C       54.68831879     -23.03904994      10.62460343
C       56.16627158     -23.03904288      12.67765435
C       54.68823788     -23.03904567      12.17467191
F       57.64460353     -23.03903999       8.74510518
F       56.16617366     -23.03904813      14.05427312
C       59.86157159     -21.75908929      10.12182420
C       56.90541424     -21.75909398      10.62467255
C       58.38336703     -21.75908693      12.67772348
C       56.90533333     -21.75908972      12.17474104
F       59.86169898     -21.75908403       8.74517431
F       58.38326912     -21.75909218      14.05434224
C       62.07866705     -20.47913333      10.12189332
C       59.12250970     -20.47913803      10.62474168
C       60.60046249     -20.47913097      12.67779260
C       59.12242879     -20.47913377      12.17481016
F       62.07879444     -20.47912808       8.74524343
F       60.60036458     -20.47913622      14.05441136
C       64.29576251     -19.19917738      10.12196245
C       61.33960516     -19.19918207      10.62481080
C       62.81755795     -19.19917502      12.67786173
C       61.33952425     -19.19917781      12.17487929
F       64.29588990     -19.19917212       8.74531256
F       62.81746003     -19.19918027      14.05448049
C       66.51285796     -17.91922142      10.12203157
C       63.55670061     -17.91922612      10.62487993
C       65.03465340     -17.91921907      12.67793085
C       63.55661970     -17.91922186      12.17494841
F       66.51298535     -17.91921617       8.74538168
F       65.03455549     -17.91922431      14.05454961
C       68.72995342     -16.63926547      10.12210069
C       65.77379607     -16.63927016      10.62494905
C       67.25174886     -16.63926311      12.67799998
C       65.77371516     -16.63926590      12.17501754
F       68.73008081     -16.63926021       8.74545081
F       67.25165095     -16.63926836      14.05461874
C       70.94704888     -15.35930951      10.12216982
C       67.99089153     -15.35931421      10.62501818
C       69.46884432     -15.35930716      12.67806910
C       67.99081062     -15.35930995      12.17508666
F       70.94717627     -15.35930426       8.74551993
F       69.46874640     -15.35931240      14.05468786
C       73.16414433     -14.07935356      10.12223894
C       70.20798699     -14.07935825      10.62508730
C       71.68593977     -14.07935120      12.67813823
C       70.20790607     -14.07935399      12.17515579
F       73.16427172     -14.07934830       8.74558906
F       71.68584186     -14.07935645      14.05475699
C       75.38123979     -12.79939761      10.12230807
C       72.42508244     -12.79940230      10.62515643
C       73.90303523     -12.79939525      12.67820735
C       72.42500153     -12.79939804      12.17522491
F       75.38136718     -12.79939235       8.74565818
F       73.90293732     -12.79940049      14.05482611
C       77.59833525     -11.51944165      10.12237719
C       74.64217790     -11.51944634      10.62522555
C       76.12013069     -11.51943929      12.67827647
C       74.64209699     -11.51944208      12.17529404
F       77.59846264     -11.51943639       8.74572731
F       76.12003277     -11.51944454      14.05489524
C       79.81543071     -10.23948570      10.12244632
C       76.85927336     -10.23949039      10.62529468
C       78.33722614     -10.23948334      12.67834560
C       76.85919244     -10.23948613      12.17536316
F       79.81555809     -10.23948044       8.74579643
F       78.33712823     -10.23948858      14.05496436
C       82.03252616      -8.95952974      10.12251544
C       79.07636881      -8.95953443      10.62536380
C       80.55432160      -8.95952738      12.67841472
C       79.07628790      -8.95953017      12.17543229
F       82.03265355      -8.95952449       8.74586556
F       80.55422369      -8.95953263      14.05503349
C       84.24962162      -7.67957379      10.12258457
C       81.29346427      -7.67957848      10.62543293
C       82.77141706      -7.67957143      12.67848385
C       81.29338336      -7.67957422      12.17550141
F       84.24974901      -7.67956853       8.74593468
F       82.77131915      -7.67957667      14.05510261
C       86.46671708      -6.39961783      10.12265369
C       83.51055973      -6.39962253      10.62550205
C       84.98851251      -6.39961547      12.67855297
C       83.51047882      -6.39961826      12.17557054
F       86.46684446      -6.39961258       8.74600380
F       84.98841460      -6.39962072      14.05517174
C       88.68381253      -5.11966188      10.12272282
C       85.72765518      -5.11966657      10.62557117
C       87.20560797      -5.11965952      12.67862210
C       85.72757427      -5.11966231      12.17563966
F       88.68393992      -5.11965662       8.74607293
F       87.20551006      -5.11966476      14.05524086
C       90.90090799      -3.83970592      10.12279194
C       87.94475064      -3.83971062      10.62564030
C       89.42270343      -3.83970356      12.67869122
C       87.94466973      -3.83970635      12.17570879
F       90.90103538      -3.83970067       8.74614205
F       89.42260552      -3.83970881      14.05530999
C       93.11800345      -2.55974997      10.12286107
C       90.16184610      -2.55975466      10.62570942
C       91.63979889      -2.55974761      12.67876035
C       90.16176519      -2.55975040      12.17577791
F       93.11813084      -2.55974471       8.74621118
F       91.63970097      -2.55975286      14.05537911
C       95.33509890      -1.27979401      10.12293019
C       92.37894155      -1.27979871      10.62577855
C       93.85689434      -1.27979165      12.67882947
C       92.37886064      -1.27979444      12.17584703
F       95.33522629      -1.27978876       8.74628030
F       93.85679643      -1.27979690      14.05544824
C       97.55219436       0.00016194      10.12299932
C       94.59603701       0.00015725      10.62584767
C       96.07398980       0.00016430      12.67889860
C       94.59595610       0.00016151      12.17591616
F       97.55232175       0.00016720       8.74634943
F       96.07389189       0.00015905      14.05551736
C       99.76928982       1.28011790      10.12306844
C       96.81313247       1.28011320      10.62591680
C       98.29108526       1.28012026      12.67896772
C       96.81305156       1.28011747      12.17598528
F       99.76941721       1.28012315       8.74641855
F       98.29098734       1.28011501      14.05558648
C      101.98638527       2.56007385      10.12313757
C       99.03022792       2.56006916      10.62598592
C      100.50818071       2.56007621      12.67903685
C       99.03014701       2.56007342      12.17605441
F      101.98651266       2.56007911       8.74648768
F      100.50808280       2.56007096      14.05565561
C      104.20348073       3.84002981      10.12320669
C      101.24732338       3.84002511      10.62605505
C      102.72527617       3.84003217      12.67910597
C      101.24724247       3.84002937      12.17612353
F      104.20360812       3.84003506       8.74655680
F      102.72517826       3.84002692      14.05572473
C      106.42057619       5.11998576      10.12327581
C      103.46441884       5.11998107      10.62612417
C      104.94237163       5.11998812      12.67917510
C      103.46433793       5.11998533      12.17619266
F      106.42070358       5.11999102       8.74662593
F      104.94227371       5.11998287      14.05579386
C      108.63767164       6.39994172      10.12334494
C      105.68151430       6.39993702      10.62619330
C      107.15946708       6.39994407      12.67924422
C      105.68143338       6.39994128      12.17626178
F      108.63779903       6.39994697       8.74669505
F      107.15936917       6.39993883      14.05586298
C      110.85476710       7.67989767      10.12341406
C      107.89860975       7.67989298      10.62626242
C      109.37656254       7.67990003      12.67931334
C      107.89852884       7.67989724      12.17633091
F      110.85489449       7.67990293       8.74676418
F      109.37646463       7.67989478      14.05593211
C      113.07186256       8.95985362      10.12348319
C      110.11570521       8.95984893      10.62633155
C      111.59365800       8.95985598      12.67938247
C      110.11562430       8.95985319      12.17640003
F      113.07198995       8.95985888       8.74683330
F      111.59356008       8.95985074      14.05600123
C      115.28895802      10.23980958      10.12355231
C      112.33280067      10.23980489      10.62640067
C      113.81075345      10.23981194      12.67945159
C      112.33271975      10.23980915      12.17646916
F      115.28908540      10.23981484       8.74690243
F      113.81065554      10.23980669      14.05607036
C      117.50605347      11.51976553      10.12362144
C      114.54989612      11.51976084      10.62646980
C      116.02784891      11.51976789      12.67952072
C      114.54981521      11.51976510      12.17653828
F      117.50618086      11.51977079       8.74697155
F      116.02775100      11.51976265      14.05613948
C      119.72314893      12.79972149      10.12369056
C      116.76699158      12.79971680      10.62653892
C      118.24494437      12.79972385      12.67958984
C      116.76691067      12.79972106      12.17660741
F      119.72327632      12.79972674       8.74704067
F      118.24484646      12.79971860      14.05620861
C      121.94024439      14.07967744      10.12375969
C      118.98408704      14.07967275      10.62660804
C      120.46203982      14.07967980      12.67965897
C      118.98400613      14.07967701      12.17667653
F      121.94037177      14.07968270       8.74710980
F      120.46194191      14.07967456      14.05627773
C      124.15733984      15.35963340      10.12382881
C      121.20118249      15.35962871      10.62667717
C      122.67913528      15.35963576      12.67972809
C      121.20110158      15.35963297      12.17674566
F      124.15746723      15.35963865       8.74717892
F      122.67903737      15.35963051      14.05634686
C       53.21028183     -28.15886159      10.12161627
C       50.25412448     -28.15886628      10.62446463
C       51.73207727     -28.15885923      12.67751555
C       50.25404357     -28.15886202      12.17453311
F       53.21040922     -28.15885633       8.74496638
F       51.73197936     -28.15886447      14.05413431
C       55.42737729     -26.87890563      10.12168539
C       52.47121994     -26.87891033      10.62453375
C       53.94917273     -26.87890327      12.67758467
C       52.47113903     -26.87890606      12.17460224
F       55.42750468     -26.87890038       8.74503551
F       53.94907481     -26.87890852      14.05420344
C       57.64447274     -25.59894968      10.12175452
C       54.68831539     -25.59895437      10.62460288
C       56.16626818     -25.59894732      12.67765380
C       54.68823448     -25.59895011      12.17467136
F       57.64460013     -25.59894442       8.74510463
F       56.16617027     -25.59895256      14.05427256
C       59.86156820     -24.31899372      10.12182364
C       56.90541085     -24.31899842      10.62467200
C       58.38336364     -24.31899136      12.67772292
C       56.90532994     -24.31899415      12.17474049
F       59.86169559     -24.31898847       8.74517376
F       58.38326573     -24.31899661      14.05434169
C       62.07866366     -23.03903777      10.12189277
C       59.12250631     -23.03904246      10.62474113
C       60.60045910     -23.03903541      12.67779205
C       59.12242540     -23.03903820      12.17480961
F       62.07879105     -23.03903251       8.74524288
F       60.60036118     -23.03904066      14.05441081
C       64.29575911     -21.75908181      10.12196189
C       61.33960176     -21.75908651      10.62481025
C       62.81755455     -21.75907945      12.67786117
C       61.33952085     -21.75908224      12.17487874
F       64.29588650     -21.75907656       8.74531200
F       62.81745664     -21.75908470      14.05447994
C       66.51285457     -20.47912586      10.12203102
C       63.55669722     -20.47913055      10.62487937
C       65.03465001     -20.47912350      12.67793030
C       63.55661631     -20.47912629      12.17494786
F       66.51298196     -20.47912060       8.74538113
F       65.03455210     -20.47912875      14.05454906
C       68.72995003     -19.19916990      10.12210014
C       65.77379268     -19.19917460      10.62494850
C       67.25174547     -19.19916754      12.67799942
C       65.77371177     -19.19917033      12.17501699
F       68.73007742     -19.19916465       8.74545025
F       67.25164755     -19.19917279      14.05461819
C       70.94704548     -17.91921395      10.12216927
C       67.99088814     -17.91921864      10.62501762
C       69.46884092     -17.91921159      12.67806855
C       67.99080722     -17.91921438      12.17508611
F       70.94717287     -17.91920869       8.74551938
F       69.46874301     -17.91921684      14.05468731
C       73.16414094     -16.63925799      10.12223839
C       70.20798359     -16.63926269      10.62508675
C       71.68593638     -16.63925563      12.67813767
C       70.20790268     -16.63925843      12.17515523
F       73.16426833     -16.63925274       8.74558850
F       71.68583847     -16.63926088      14.05475644
C       75.38123640     -15.35930204      10.12230752
C       72.42507905     -15.35930673      10.62515587
C       73.90303184     -15.35929968      12.67820680
C       72.42499814     -15.35930247      12.17522436
F       75.38136379     -15.35929678       8.74565763
F       73.90293392     -15.35930493      14.05482556
C       77.59833186     -14.07934608      10.12237664
C       74.64217451     -14.07935078      10.62522500
C       76.12012729     -14.07934373      12.67827592
C       74.64209359     -14.07934652      12.17529348
F       77.59845924     -14.07934083       8.74572675
F       76.12002938     -14.07934897      14.05489468
C       79.81542731     -12.79939013      10.12244577
C       76.85926996     -12.79939482      10.62529412
C       78.33722275     -12.79938777      12.67834505
C       76.85918905     -12.79939056      12.17536261
F       79.81555470     -12.79938487       8.74579588
F       78.33712484     -12.79939302      14.05496381
C       82.03252277     -11.51943418      10.12251489
C       79.07636542     -11.51943887      10.62536325
C       80.55431821     -11.51943182      12.67841417
C       79.07628451     -11.51943461      12.17543173
F       82.03265016     -11.51942892       8.74586500
F       80.55422030     -11.51943706      14.05503293
C       84.24961823     -10.23947822      10.12258401
C       81.29346088     -10.23948291      10.62543237
C       82.77141366     -10.23947586      12.67848330
C       81.29337997     -10.23947865      12.17550086
F       84.24974561     -10.23947296       8.74593413
F       82.77131575     -10.23948111      14.05510206
C       86.46671368      -8.95952227      10.12265314
C       83.51055633      -8.95952696      10.62550150
C       84.98850912      -8.95951991      12.67855242
C       83.51047542      -8.95952270      12.17556998
F       86.46684107      -8.95951701       8.74600325
F       84.98841121      -8.95952515      14.05517118
C       88.68380914      -7.67956631      10.12272226
C       85.72765179      -7.67957100      10.62557062
C       87.20560458      -7.67956395      12.67862154
C       85.72757088      -7.67956674      12.17563911
F       88.68393653      -7.67956105       8.74607238
F       87.20550667      -7.67956920      14.05524031
C       90.90090460      -6.39961036      10.12279139
C       87.94474725      -6.39961505      10.62563975
C       89.42270004      -6.39960800      12.67869067
C       87.94466634      -6.39961079      12.17570823
F       90.90103199      -6.39960510       8.74614150
F       89.42260212      -6.39961324      14.05530943
C       93.11800005      -5.11965440      10.12286051
C       90.16184270      -5.11965909      10.62570887
C       91.63979549      -5.11965204      12.67875979
C       90.16176179      -5.11965483      12.17577736
F       93.11812744      -5.11964915       8.74621063
F       91.63969758      -5.11965729      14.05537856
C       95.33509551      -3.83969845      10.12292964
C       92.37893816      -3.83970314      10.62577800
C       93.85689095      -3.83969609      12.67882892
C       92.37885725      -3.83969888      12.17584648
F       95.33522290      -3.83969319       8.74627975
F       93.85679304      -3.83970133      14.05544768
C       97.55219097      -2.55974249      10.12299876
C       94.59603362      -2.55974719      10.62584712
C       96.07398641      -2.55974013      12.67889804
C       94.59595271      -2.55974292      12.17591561
F       97.55231836      -2.55973724       8.74634887
F       96.07388849      -2.55974538      14.05551681
C       99.76928642      -1.27978654      10.12306789
C       96.81312907      -1.27979123      10.62591625
C       98.29108186      -1.27978418      12.67896717
C       96.81304816      -1.27978697      12.17598473
F       99.76941381      -1.27978128       8.74641800
F       98.29098395      -1.27978942      14.05558593
C      101.98638188       0.00016942      10.12313701
C       99.03022453       0.00016472      10.62598537
C      100.50817732       0.00017178      12.67903629
C       99.03014362       0.00016899      12.17605386
F      101.98650927       0.00017467       8.74648712
F      100.50807941       0.00016653      14.05565506
C      104.20347734       1.28012537      10.12320614
C      101.24731999       1.28012068      10.62605449
C      102.72527278       1.28012773      12.67910542
C      101.24723908       1.28012494      12.17612298
F      104.20360473       1.28013063       8.74655625
F      102.72517486       1.28012248      14.05572418
C      106.42057279       2.56008133      10.12327526
C      103.46441545       2.56007663      10.62612362
C      104.94236823       2.56008369      12.67917454
C      103.46433453       2.56008090      12.17619210
F      106.42070018       2.56008658       8.74662537
F      104.94227032       2.56007844      14.05579331
C      108.63766825       3.84003728      10.12334439
C      105.68151090       3.84003259      10.62619274
C      107.15946369       3.84003964      12.67924367
C      105.68142999       3.84003685      12.17626123
F      108.63779564       3.84004254       8.74669450
F      107.15936578       3.84003439      14.05586243
C      110.85476371       5.11999324      10.12341351
C      107.89860636       5.11998854      10.62626187
C      109.37655915       5.11999560      12.67931279
C      107.89852545       5.11999281      12.17633035
F      110.85489110       5.11999849       8.74676362
F      109.37646123       5.11999035      14.05593155
C      113.07185917       6.39994919      10.12348264
C      110.11570182       6.39994450      10.62633099
C      111.59365460       6.39995155      12.67938192
C      110.11562090       6.39994876      12.17639948
F      113.07198655       6.39995445       8.74683275
F      111.59355669       6.39994630      14.05600068
C      115.28895462       7.67990515      10.12355176
C      112.33279727       7.67990045      10.62640012
C      113.81075006       7.67990751      12.67945104
C      112.33271636       7.67990471      12.17646860
F      115.28908201       7.67991040       8.74690187
F      113.81065215       7.67990226      14.05606980
C      117.50605008       8.95986110      10.12362088
C      114.54989273       8.95985641      10.62646924
C      116.02784552       8.95986346      12.67952017
C      114.54981182       8.95986067      12.17653773
F      117.50617747       8.95986636       8.74697100
F      116.02774761       8.95985821      14.05613893
C      119.72314554      10.23981706      10.12369001
C      116.76698819      10.23981236      10.62653837
C      118.24494097      10.23981941      12.67958929
C      116.76690728      10.23981662      12.17660685
F      119.72327292      10.23982231       8.74704012
F      118.24484306      10.23981417      14.05620805
C      121.94024099      11.51977301      10.12375913
C      118.98408364      11.51976832      10.62660749
C      120.46203643      11.51977537      12.67965842
C      118.98400273      11.51977258      12.17667598
F      121.94036838      11.51977827       8.74710925
F      120.46193852      11.51977012      14.05627718
C      124.15733645      12.79972896      10.12382826
C      121.20117910      12.79972427      10.62667662
C      122.67913189      12.79973132      12.67972754
C      121.20109819      12.79972853      12.17674510
F      124.15746384      12.79973422       8.74717837
F      122.67903398      12.79972608      14.05634630
C      126.37443191      14.07968492      10.12389738
C      123.41827456      14.07968023      10.62674574
C      124.89622735      14.07968728      12.67979666
C      123.41819365      14.07968449      12.17681423
F      126.37455930      14.07969018       8.74724750
F      124.89612943      14.07968203      14.05641543
C       55.42737389     -29.43881007      10.12168484
C       52.47121654     -29.43881476      10.62453320
C       53.94916933     -29.43880771      12.67758412
C       52.47113563     -29.43881050      12.17460168
F       55.42750128     -29.43880481       8.74503495
F       53.94907142     -29.43881295      14.05420288
C       57.64446935     -28.15885411      10.12175397
C       54.68831200     -28.15885880      10.62460232
C       56.16626479     -28.15885175      12.67765325
C       54.68823109     -28.15885454      12.17467081
F       57.64459674     -28.15884885       8.74510408
F       56.16616688     -28.15885700      14.05427201
C       59.86156481     -26.87889816      10.12182309
C       56.90540746     -26.87890285      10.62467145
C       58.38336025     -26.87889580      12.67772237
C       56.90532655     -26.87889859      12.17473993
F       59.86169220     -26.87889290       8.74517320
F       58.38326233     -26.87890104      14.05434113
C       62.07866026     -25.59894220      10.12189221
C       59.12250291     -25.59894689      10.62474057
C       60.60045570     -25.59893984      12.67779150
C       59.12242200     -25.59894263      12.17480906
F       62.07878765     -25.59893695       8.74524233
F       60.60035779     -25.59894509      14.05441026
C       64.29575572     -24.31898625      10.12196134
C       61.33959837     -24.31899094      10.62480970
C       62.81755116     -24.31898389      12.67786062
C       61.33951746     -24.31898668      12.17487818
F       64.29588311     -24.31898099       8.74531145
F       62.81745325     -24.31898913      14.05447938
C       66.51285118     -23.03903029      10.12203046
C       63.55669383     -23.03903499      10.62487882
C       65.03464662     -23.03902793      12.67792974
C       63.55661292     -23.03903072      12.17494731
F       66.51297857     -23.03902504       8.74538058
F       65.03454870     -23.03903318      14.05454851
C       68.72994663     -21.75907434      10.12209959
C       65.77378929     -21.75907903      10.62494795
C       67.25174207     -21.75907198      12.67799887
C       65.77370837     -21.75907477      12.17501643
F       68.73007402     -21.75906908       8.74544970
F       67.25164416     -21.75907722      14.05461763
C       70.94704209     -20.47911838      10.12216871
C       67.99088474     -20.47912308      10.62501707
C       69.46883753     -20.47911602      12.67806799
C       67.99080383     -20.47911881      12.17508556
F       70.94716948     -20.47911313       8.74551883
F       69.46873962     -20.47912127      14.05468676
C       73.16413755     -19.19916243      10.12223784
C       70.20798020     -19.19916712      10.62508620
C       71.68593299     -19.19916007      12.67813712
C       70.20789929     -19.19916286      12.17515468
F       73.16426494     -19.19915717       8.74558795
F       71.68583507     -19.19916532      14.05475588
C       75.38123301     -17.91920647      10.12230696
C       72.42507566     -17.91921117      10.62515532
C       73.90302844     -17.91920411      12.67820624
C       72.42499474     -17.91920690      12.17522381
F       75.38136039     -17.91920122       8.74565708
F       73.90293053     -17.91920936      14.05482501
C       77.59832846     -16.63925052      10.12237609
C       74.64217111     -16.63925521      10.62522445
C       76.12012390     -16.63924816      12.67827537
C       74.64209020     -16.63925095      12.17529293
F       77.59845585     -16.63924526       8.74572620
F       76.12002599     -16.63925341      14.05489413
C       79.81542392     -15.35929456      10.12244521
C       76.85926657     -15.35929926      10.62529357
C       78.33721936     -15.35929220      12.67834449
C       76.85918566     -15.35929499      12.17536206
F       79.81555131     -15.35928931       8.74579532
F       78.33712145     -15.35929745      14.05496326
C       82.03251938     -14.07933861      10.12251434
C       79.07636203     -14.07934330      10.62536269
C       80.55431481     -14.07933625      12.67841362
C       79.07628112     -14.07933904      12.17543118
F       82.03264676     -14.07933335       8.74586445
F       80.55421690     -14.07934150      14.05503238
C       84.24961483     -12.79938265      10.12258346
C       81.29345748     -12.79938735      10.62543182
C       82.77141027     -12.79938029      12.67848274
C       81.29337657     -12.79938309      12.17550030
F       84.24974222     -12.79937740       8.74593357
F       82.77131236     -12.79938554      14.05510151
C       86.46671029     -11.51942670      10.12265259
C       83.51055294     -11.51943139      10.62550094
C       84.98850573     -11.51942434      12.67855187
C       83.51047203     -11.51942713      12.17556943
F       86.46683768     -11.51942144       8.74600270
F       84.98840782     -11.51942959      14.05517063
C       88.68380575     -10.23947074      10.12272171
C       85.72764840     -10.23947544      10.62557007
C       87.20560119     -10.23946839      12.67862099
C       85.72756749     -10.23947118      12.17563855
F       88.68393314     -10.23946549       8.74607182
F       87.20550327     -10.23947363      14.05523975
C       90.90090120      -8.95951479      10.12279084
C       87.94474385      -8.95951948      10.62563919
C       89.42269664      -8.95951243      12.67869012
C       87.94466294      -8.95951522      12.17570768
F       90.90102859      -8.95950953       8.74614095
F       89.42259873      -8.95951768      14.05530888
C       93.11799666      -7.67955884      10.12285996
C       90.16183931      -7.67956353      10.62570832
C       91.63979210      -7.67955648      12.67875924
C       90.16175840      -7.67955927      12.17577680
F       93.11812405      -7.67955358       8.74621007
F       91.63969419      -7.67956172      14.05537800
C       95.33509212      -6.39960288      10.12292908
C       92.37893477      -6.39960757      10.62577744
C       93.85688756      -6.39960052      12.67882837
C       92.37885386      -6.39960331      12.17584593
F       95.33521951      -6.39959762       8.74627920
F       93.85678964      -6.39960577      14.05544713
C       97.55218757      -5.11964693      10.12299821
C       94.59603022      -5.11965162      10.62584657
C       96.07398301      -5.11964457      12.67889749
C       94.59594931      -5.11964736      12.17591505
F       97.55231496      -5.11964167       8.74634832
F       96.07388510      -5.11964981      14.05551625
C       99.76928303      -3.83969097      10.12306733
C       96.81312568      -3.83969566      10.62591569
C       98.29107847      -3.83968861      12.67896662
C       96.81304477      -3.83969140      12.17598418
F       99.76941042      -3.83968572       8.74641745
F       98.29098056      -3.83969386      14.05558538
C      101.98637849      -2.55973502      10.12313646
C       99.03022114      -2.55973971      10.62598482
C      100.50817393      -2.55973266      12.67903574
C       99.03014023      -2.55973545      12.17605330
F      101.98650588      -2.55972976       8.74648657
F      100.50807601      -2.55973790      14.05565450
C      104.20347394      -1.27977906      10.12320558
C      101.24731660      -1.27978375      10.62605394
C      102.72526938      -1.27977670      12.67910486
C      101.24723568      -1.27977949      12.17612243
F      104.20360133      -1.27977381       8.74655570
F      102.72517147      -1.27978195      14.05572363
C      106.42056940       0.00017689      10.12327471
C      103.46441205       0.00017220      10.62612307
C      104.94236484       0.00017925      12.67917399
C      103.46433114       0.00017646      12.17619155
F      106.42069679       0.00018215       8.74662482
F      104.94226693       0.00017401      14.05579275
C      108.63766486       1.28013285      10.12334383
C      105.68150751       1.28012815      10.62619219
C      107.15946030       1.28013521      12.67924311
C      105.68142660       1.28013242      12.17626068
F      108.63779225       1.28013810       8.74669395
F      107.15936238       1.28012996      14.05586188
C      110.85476032       2.56008880      10.12341296
C      107.89860297       2.56008411      10.62626132
C      109.37655575       2.56009116      12.67931224
C      107.89852205       2.56008837      12.17632980
F      110.85488770       2.56009406       8.74676307
F      109.37645784       2.56008592      14.05593100
C      113.07185577       3.84004476      10.12348208
C      110.11569842       3.84004006      10.62633044
C      111.59365121       3.84004712      12.67938136
C      110.11561751       3.84004433      12.17639893
F      113.07198316       3.84005001       8.74683219
F      111.59355330       3.84004187      14.05600013
C      115.28895123       5.12000071      10.12355121
C      112.33279388       5.11999602      10.62639956
C      113.81074667       5.12000307      12.67945049
C      112.33271297       5.12000028      12.17646805
F      115.28907862       5.12000597       8.74690132
F      113.81064876       5.11999782      14.05606925
C      117.50604669       6.39995667      10.12362033
C      114.54988934       6.39995197      10.62646869
C      116.02784212       6.39995903      12.67951961
C      114.54980843       6.39995624      12.17653717
F      117.50617407       6.39996192       8.74697044
F      116.02774421       6.39995378      14.05613838
C      119.72314214       7.67991262      10.12368946
C      116.76698479       7.67990793      10.62653781
C      118.24493758       7.67991498      12.67958874
C      116.76690388       7.67991219      12.17660630
F      119.72326953       7.67991788       8.74703957
F      118.24483967       7.67990973      14.05620750
C      121.94023760       8.95986858      10.12375858
C      118.98408025       8.95986388      10.62660694
C      120.46203304       8.95987094      12.67965786
C      118.98399934       8.95986815      12.17667542
F      121.94036499       8.95987383       8.74710869
F      120.46193513       8.95986569      14.05627662
C      124.15733306      10.23982453      10.12382771
C      121.20117571      10.23981984      10.62667606
C      122.67912850      10.23982689      12.67972699
C      121.20109480      10.23982410      12.17674455
F      124.15746045      10.23982979       8.74717782
F      122.67903058      10.23982164      14.05634575
C      126.37442851      11.51978049      10.12389683
C      123.41827116      11.51977579      10.62674519
C      124.89622395      11.51978285      12.67979611
C      123.41819025      11.51978005      12.17681367
F      126.37455590      11.51978574       8.74724694
F      124.89612604      11.51977760      14.05641487
C      128.59152397      12.79973644      10.12396595
C      125.63536662      12.79973175      10.62681431
C      127.11331941      12.79973880      12.67986524
C      125.63528571      12.79973601      12.17688280
F      128.59165136      12.79974170       8.74731607
F      127.11322150      12.79973355      14.05648400
C       57.64446596     -30.71875854      10.12175341
C       54.68830861     -30.71876324      10.62460177
C       56.16626140     -30.71875619      12.67765269
C       54.68822770     -30.71875898      12.17467026
F       57.64459335     -30.71875329       8.74510352
F       56.16616348     -30.71876143      14.05427146
C       59.86156141     -29.43880259      10.12182254
C       56.90540407     -29.43880728      10.62467089
C       58.38335685     -29.43880023      12.67772182
C       56.90532315     -29.43880302      12.17473938
F       59.86168880     -29.43879733       8.74517265
F       58.38325894     -29.43880548      14.05434058
C       62.07865687     -28.15884663      10.12189166
C       59.12249952     -28.15885133      10.62474002
C       60.60045231     -28.15884428      12.67779094
C       59.12241861     -28.15884707      12.17480850
F       62.07878426     -28.15884138       8.74524177
F       60.60035440     -28.15884952      14.05440971
C       64.29575233     -26.87889068      10.12196079
C       61.33959498     -26.87889537      10.62480914
C       62.81754777     -26.87888832      12.67786007
C       61.33951407     -26.87889111      12.17487763
F       64.29587972     -26.87888542       8.74531090
F       62.81744985     -26.87889357      14.05447883
C       66.51284779     -25.59893473      10.12202991
C       63.55669044     -25.59893942      10.62487827
C       65.03464322     -25.59893237      12.67792919
C       63.55660952     -25.59893516      12.17494675
F       66.51297517     -25.59892947       8.74538002
F       65.03454531     -25.59893761      14.05454795
C       68.72994324     -24.31897877      10.12209904
C       65.77378589     -24.31898346      10.62494739
C       67.25173868     -24.31897641      12.67799832
C       65.77370498     -24.31897920      12.17501588
F       68.73007063     -24.31897351       8.74544915
F       67.25164077     -24.31898166      14.05461708
C       70.94703870     -23.03902282      10.12216816
C       67.99088135     -23.03902751      10.62501652
C       69.46883414     -23.03902046      12.67806744
C       67.99080044     -23.03902325      12.17508500
F       70.94716609     -23.03901756       8.74551827
F       69.46873623     -23.03902570      14.05468620
C       73.16413416     -21.75906686      10.12223728
C       70.20797681     -21.75907155      10.62508564
C       71.68592959     -21.75906450      12.67813657
C       70.20789589     -21.75906729      12.17515413
F       73.16426154     -21.75906161       8.74558740
F       71.68583168     -21.75906975      14.05475533
C       75.38122961     -20.47911091      10.12230641
C       72.42507226     -20.47911560      10.62515477
C       73.90302505     -20.47910855      12.67820569
C       72.42499135     -20.47911134      12.17522325
F       75.38135700     -20.47910565       8.74565652
F       73.90292714     -20.47911379      14.05482445
C       77.59832507     -19.19915495      10.12237553
C       74.64216772     -19.19915965      10.62522389
C       76.12012051     -19.19915259      12.67827482
C       74.64208681     -19.19915538      12.17529238
F       77.59845246     -19.19914970       8.74572565
F       76.12002260     -19.19915784      14.05489358
C       79.81542053     -17.91919900      10.12244466
C       76.85926318     -17.91920369      10.62529302
C       78.33721597     -17.91919664      12.67834394
C       76.85918227     -17.91919943      12.17536150
F       79.81554791     -17.91919374       8.74579477
F       78.33711805     -17.91920188      14.05496270
C       82.03251598     -16.63924304      10.12251378
C       79.07635863     -16.63924774      10.62536214
C       80.55431142     -16.63924068      12.67841306
C       79.07627772     -16.63924347      12.17543063
F       82.03264337     -16.63923779       8.74586390
F       80.55421351     -16.63924593      14.05503183
C       84.24961144     -15.35928709      10.12258291
C       81.29345409     -15.35929178      10.62543127
C       82.77140688     -15.35928473      12.67848219
C       81.29337318     -15.35928752      12.17549975
F       84.24973883     -15.35928183       8.74593302
F       82.77130897     -15.35928998      14.05510095
C       86.46670690     -14.07933113      10.12265203
C       83.51054955     -14.07933583      10.62550039
C       84.98850234     -14.07932877      12.67855131
C       83.51046864     -14.07933156      12.17556888
F       86.46683429     -14.07932588       8.74600215
F       84.98840442     -14.07933402      14.05517008
C       88.68380235     -12.79937518      10.12272116
C       85.72764500     -12.79937987      10.62556952
C       87.20559779     -12.79937282      12.67862044
C       85.72756409     -12.79937561      12.17563800
F       88.68392974     -12.79936992       8.74607127
F       87.20549988     -12.79937807      14.05523920
C       90.90089781     -11.51941922      10.12279028
C       87.94474046     -11.51942392      10.62563864
C       89.42269325     -11.51941686      12.67868956
C       87.94465955     -11.51941965      12.17570713
F       90.90102520     -11.51941397       8.74614039
F       89.42259534     -11.51942211      14.05530833
C       93.11799327     -10.23946327      10.12285941
C       90.16183592     -10.23946796      10.62570776
C       91.63978871     -10.23946091      12.67875869
C       90.16175501     -10.23946370      12.17577625
F       93.11812066     -10.23945801       8.74620952
F       91.63969079     -10.23946616      14.05537745
C       95.33508872      -8.95950731      10.12292853
C       92.37893137      -8.95951201      10.62577689
C       93.85688416      -8.95950495      12.67882781
C       92.37885046      -8.95950775      12.17584537
F       95.33521611      -8.95950206       8.74627864
F       93.85678625      -8.95951020      14.05544658
C       97.55218418      -7.67955136      10.12299766
C       94.59602683      -7.67955605      10.62584601
C       96.07397962      -7.67954900      12.67889694
C       94.59594592      -7.67955179      12.17591450
F       97.55231157      -7.67954610       8.74634777
F       96.07388171      -7.67955425      14.05551570
C       99.76927964      -6.39959540      10.12306678
C       96.81312229      -6.39960010      10.62591514
C       98.29107508      -6.39959305      12.67896606
C       96.81304138      -6.39959584      12.17598362
F       99.76940703      -6.39959015       8.74641689
F       98.29097716      -6.39959829      14.05558483
C      101.98637509      -5.11963945      10.12313591
C       99.03021775      -5.11964414      10.62598426
C      100.50817053      -5.11963709      12.67903519
C       99.03013683      -5.11963988      12.17605275
F      101.98650248      -5.11963419       8.74648602
F      100.50807262      -5.11964234      14.05565395
C      104.20347055      -3.83968350      10.12320503
C      101.24731320      -3.83968819      10.62605339
C      102.72526599      -3.83968114      12.67910431
C      101.24723229      -3.83968393      12.17612187
F      104.20359794      -3.83967824       8.74655514
F      102.72516808      -3.83968638      14.05572307
C      106.42056601      -2.55972754      10.12327416
C      103.46440866      -2.55973223      10.62612251
C      104.94236145      -2.55972518      12.67917344
C      103.46432775      -2.55972797      12.17619100
F      106.42069340      -2.55972228       8.74662427
F      104.94226353      -2.55973043      14.05579220
C      108.63766147      -1.27977159      10.12334328
C      105.68150412      -1.27977628      10.62619164
C      107.15945690      -1.27976923      12.67924256
C      105.68142320      -1.27977202      12.17626012
F      108.63778885      -1.27976633       8.74669339
F      107.15935899      -1.27977447      14.05586132
C      110.85475692       0.00018437      10.12341240
C      107.89859957       0.00017968      10.62626076
C      109.37655236       0.00018673      12.67931169
C      107.89851866       0.00018394      12.17632925
F      110.85488431       0.00018962       8.74676252
F      109.37645445       0.00018148      14.05593045
C      113.07185238       1.28014032      10.12348153
C      110.11569503       1.28013563      10.62632989
C      111.59364782       1.28014268      12.67938081
C      110.11561412       1.28013989      12.17639837
F      113.07197977       1.28014558       8.74683164
F      111.59354991       1.28013744      14.05599957
C      115.28894784       2.56009628      10.12355065
C      112.33279049       2.56009159      10.62639901
C      113.81074327       2.56009864      12.67944993
C      112.33270958       2.56009585      12.17646750
F      115.28907522       2.56010153       8.74690077
F      113.81064536       2.56009339      14.05606870
C      117.50604329       3.84005223      10.12361978
C      114.54988594       3.84004754      10.62646814
C      116.02783873       3.84005459      12.67951906
C      114.54980503       3.84005180      12.17653662
F      117.50617068       3.84005749       8.74696989
F      116.02774082       3.84004935      14.05613782
C      119.72313875       5.12000819      10.12368890
C      116.76698140       5.12000349      10.62653726
C      118.24493419       5.12001055      12.67958818
C      116.76690049       5.12000776      12.17660575
F      119.72326614       5.12001344       8.74703902
F      118.24483628       5.12000530      14.05620695
C      121.94023421       6.39996414      10.12375803
C      118.98407686       6.39995945      10.62660639
C      120.46202965       6.39996650      12.67965731
C      118.98399595       6.39996371      12.17667487
F      121.94036160       6.39996940       8.74710814
F      120.46193173       6.39996126      14.05627607
C      124.15732966       7.67992010      10.12382715
C      121.20117231       7.67991540      10.62667551
C      122.67912510       7.67992246      12.67972643
C      121.20109140       7.67991967      12.17674400
F      124.15745705       7.67992535       8.74717726
F      122.67902719       7.67991721      14.05634520
C      126.37442512       8.95987605      10.12389628
C      123.41826777       8.95987136      10.62674463
C      124.89622056       8.95987841      12.67979556
C      123.41818686       8.95987562      12.17681312
F      126.37455251       8.95988131       8.74724639
F      124.89612265       8.95987316      14.05641432
C      128.59152058      10.23983201      10.12396540
C      125.63536323      10.23982731      10.62681376
C      127.11331602      10.23983437      12.67986468
C      125.63528232      10.23983158      12.17688225
F      128.59164797      10.23983726       8.74731551
F      127.11321810      10.23982912      14.05648345
C      130.80861603      11.51978796      10.12403453
C      127.85245868      11.51978327      10.62688288
C      129.33041147      11.51979032      12.67993381
C      127.85237777      11.51978753      12.17695137
F      130.80874342      11.51979322       8.74738464
F      129.33031356      11.51978507      14.05655257
C       59.86155802     -31.99870702      10.12182198
C       56.90540067     -31.99871172      10.62467034
C       58.38335346     -31.99870466      12.67772126
C       56.90531976     -31.99870745      12.17473883
F       59.86168541     -31.99870177       8.74517210
F       58.38325555     -31.99870991      14.05434003
C       62.07865348     -30.71875107      10.12189111
C       59.12249613     -30.71875576      10.62473947
C       60.60044892     -30.71874871      12.67779039
C       59.12241522     -30.71875150      12.17480795
F       62.07878087     -30.71874581       8.74524122
F       60.60035100     -30.71875396      14.05440915
C       64.29574894     -29.43879511      10.12196023
C       61.33959159     -29.43879981      10.62480859
C       62.81754437     -29.43879275      12.67785951
C       61.33951067     -29.43879555      12.17487708
F       64.29587632     -29.43878986       8.74531035
F       62.81744646     -29.43879800      14.05447828
C       66.51284439     -28.15883916      10.12202936
C       63.55668704     -28.15884385      10.62487772
C       65.03463983     -28.15883680      12.67792864
C       63.55660613     -28.15883959      12.17494620
F       66.51297178     -28.15883390       8.74537947
F       65.03454192     -28.15884205      14.05454740
C       68.72993985     -26.87888320      10.12209848
C       65.77378250     -26.87888790      10.62494684
C       67.25173529     -26.87888085      12.67799776
C       65.77370159     -26.87888364      12.17501533
F       68.73006724     -26.87887795       8.74544859
F       67.25163738     -26.87888609      14.05461653
C       70.94703531     -25.59892725      10.12216761
C       67.99087796     -25.59893194      10.62501596
C       69.46883074     -25.59892489      12.67806689
C       67.99079705     -25.59892768      12.17508445
F       70.94716269     -25.59892199       8.74551772
F       69.46873283     -25.59893014      14.05468565
C       73.16413076     -24.31897130      10.12223673
C       70.20797341     -24.31897599      10.62508509
C       71.68592620     -24.31896894      12.67813601
C       70.20789250     -24.31897173      12.17515358
F       73.16425815     -24.31896604       8.74558684
F       71.68582829     -24.31897418      14.05475478
C       75.38122622     -23.03901534      10.12230586
C       72.42506887     -23.03902003      10.62515421
C       73.90302166     -23.03901298      12.67820514
C       72.42498796     -23.03901577      12.17522270
F       75.38135361     -23.03901008       8.74565597
F       73.90292375     -23.03901823      14.05482390
C       77.59832168     -21.75905939      10.12237498
C       74.64216433     -21.75906408      10.62522334
C       76.12011712     -21.75905703      12.67827426
C       74.64208342     -21.75905982      12.17529182
F       77.59844906     -21.75905413       8.74572509
F       76.12001920     -21.75906227      14.05489303
C       79.81541713     -20.47910343      10.12244411
C       76.85925978     -20.47910812      10.62529246
C       78.33721257     -20.47910107      12.67834339
C       76.85917887     -20.47910386      12.17536095
F       79.81554452     -20.47909817       8.74579422
F       78.33711466     -20.47910632      14.05496215
C       82.03251259     -19.19914748      10.12251323
C       79.07635524     -19.19915217      10.62536159
C       80.55430803     -19.19914512      12.67841251
C       79.07627433     -19.19914791      12.17543007
F       82.03263998     -19.19914222       8.74586334
F       80.55421012     -19.19915036      14.05503127
C       84.24960805     -17.91919152      10.12258236
C       81.29345070     -17.91919621      10.62543071
C       82.77140349     -17.91918916      12.67848164
C       81.29336979     -17.91919195      12.17549920
F       84.24973544     -17.91918627       8.74593247
F       82.77130557     -17.91919441      14.05510040
C       86.46670350     -16.63923557      10.12265148
C       83.51054615     -16.63924026      10.62549984
C       84.98849894     -16.63923321      12.67855076
C       83.51046524     -16.63923600      12.17556832
F       86.46683089     -16.63923031       8.74600159
F       84.98840103     -16.63923845      14.05516952
C       88.68379896     -15.35927961      10.12272060
C       85.72764161     -15.35928431      10.62556896
C       87.20559440     -15.35927725      12.67861989
C       85.72756070     -15.35928004      12.17563745
F       88.68392635     -15.35927436       8.74607072
F       87.20549649     -15.35928250      14.05523865
C       90.90089442     -14.07932366      10.12278973
C       87.94473707     -14.07932835      10.62563809
C       89.42268986     -14.07932130      12.67868901
C       87.94465616     -14.07932409      12.17570657
F       90.90102181     -14.07931840       8.74613984
F       89.42259194     -14.07932654      14.05530777
C       93.11798987     -12.79936770      10.12285885
C       90.16183253     -12.79937240      10.62570721
C       91.63978531     -12.79936534      12.67875813
C       90.16175161     -12.79936813      12.17577570
F       93.11811726     -12.79936245       8.74620897
F       91.63968740     -12.79937059      14.05537690
C       95.33508533     -11.51941175      10.12292798
C       92.37892798     -11.51941644      10.62577634
C       93.85688077     -11.51940939      12.67882726
C       92.37884707     -11.51941218      12.17584482
F       95.33521272     -11.51940649       8.74627809
F       93.85678286     -11.51941464      14.05544602
C       97.55218079     -10.23945579      10.12299710
C       94.59602344     -10.23946049      10.62584546
C       96.07397623     -10.23945343      12.67889638
C       94.59594253     -10.23945622      12.17591395
F       97.55230818     -10.23945054       8.74634722
F       96.07387831     -10.23945868      14.05551515
C       99.76927625      -8.95949984      10.12306623
C       96.81311890      -8.95950453      10.62591459
C       98.29107168      -8.95949748      12.67896551
C       96.81303798      -8.95950027      12.17598307
F       99.76940363      -8.95949458       8.74641634
F       98.29097377      -8.95950273      14.05558427
C      101.98637170      -7.67954388      10.12313535
C       99.03021435      -7.67954858      10.62598371
C      100.50816714      -7.67954152      12.67903463
C       99.03013344      -7.67954431      12.17605220
F      101.98649909      -7.67953863       8.74648546
F      100.50806923      -7.67954677      14.05565340
C      104.20346716      -6.39958793      10.12320448
C      101.24730981      -6.39959262      10.62605283
C      102.72526260      -6.39958557      12.67910376
C      101.24722890      -6.39958836      12.17612132
F      104.20359455      -6.39958267       8.74655459
F      102.72516469      -6.39959082      14.05572252
C      106.42056262      -5.11963197      10.12327360
C      103.46440527      -5.11963667      10.62612196
C      104.94235805      -5.11962961      12.67917288
C      103.46432436      -5.11963241      12.17619045
F      106.42069000      -5.11962672       8.74662371
F      104.94226014      -5.11963486      14.05579165
C      108.63765807      -3.83967602      10.12334273
C      105.68150072      -3.83968071      10.62619108
C      107.15945351      -3.83967366      12.67924201
C      105.68141981      -3.83967645      12.17625957
F      108.63778546      -3.83967076       8.74669284
F      107.15935560      -3.83967891      14.05586077
C      110.85475353      -2.55972006      10.12341185
C      107.89859618      -2.55972476      10.62626021
C      109.37654897      -2.55971771      12.67931113
C      107.89851527      -2.55972050      12.17632869
F      110.85488092      -2.55971481       8.74676196
F      109.37645106      -2.55972295      14.05592990
C      113.07184899      -1.27976411      10.12348098
C      110.11569164      -1.27976880      10.62632933
C      111.59364443      -1.27976175      12.67938026
C      110.11561073      -1.27976454      12.17639782
F      113.07197637      -1.27975885       8.74683109
F      111.59354651      -1.27976700      14.05599902
C      115.28894444       0.00019184      10.12355010
C      112.33278709       0.00018715      10.62639846
C      113.81073988       0.00019420      12.67944938
C      112.33270618       0.00019141      12.17646694
F      115.28907183       0.00019710       8.74690021
F      113.81064197       0.00018896      14.05606814
C      117.50603990       1.28014780      10.12361923
C      114.54988255       1.28014311      10.62646758
C      116.02783534       1.28015016      12.67951851
C      114.54980164       1.28014737      12.17653607
F      117.50616729       1.28015306       8.74696934
F      116.02773743       1.28014491      14.05613727
C      119.72313536       2.56010375      10.12368835
C      116.76697801       2.56009906      10.62653671
C      118.24493080       2.56010611      12.67958763
C      116.76689710       2.56010332      12.17660519
F      119.72326275       2.56010901       8.74703846
F      118.24483288       2.56010087      14.05620639
C      121.94023081       3.84005971      10.12375747
C      118.98407346       3.84005502      10.62660583
C      120.46202625       3.84006207      12.67965676
C      118.98399255       3.84005928      12.17667432
F      121.94035820       3.84006496       8.74710759
F      120.46192834       3.84005682      14.05627552
C      124.15732627       5.12001566      10.12382660
C      121.20116892       5.12001097      10.62667496
C      122.67912171       5.12001802      12.67972588
C      121.20108801       5.12001523      12.17674344
F      124.15745366       5.12002092       8.74717671
F      122.67902380       5.12001278      14.05634464
C      126.37442173       6.39997162      10.12389572
C      123.41826438       6.39996693      10.62674408
C      124.89621717       6.39997398      12.67979500
C      123.41818347       6.39997119      12.17681257
F      126.37454912       6.39997687       8.74724584
F      124.89611925       6.39996873      14.05641377
C      128.59151718       7.67992757      10.12396485
C      125.63535983       7.67992288      10.62681321
C      127.11331262       7.67992993      12.67986413
C      125.63527892       7.67992714      12.17688169
F      128.59164457       7.67993283       8.74731496
F      127.11321471       7.67992469      14.05648289
C      130.80861264       8.95988353      10.12403397
C      127.85245529       8.95987883      10.62688233
C      129.33040808       8.95988589      12.67993325
C      127.85237438       8.95988310      12.17695082
F      130.80874003       8.95988878       8.74738409
F      129.33031017       8.95988064      14.05655202
C      133.02570810      10.23983948      10.12410310
C      130.06955075      10.23983479      10.62695146
C      131.54750354      10.23984184      12.68000238
C      130.06946984      10.23983905      12.17701994
F      133.02583549      10.23984474       8.74745321
F      131.54740562      10.23983659      14.05662114
C       62.07865009     -33.27865550      10.12189056
C       59.12249274     -33.27866020      10.62473891
C       60.60044552     -33.27865314      12.67778984
C       59.12241182     -33.27865593      12.17480740
F       62.07877747     -33.27865025       8.74524067
F       60.60034761     -33.27865839      14.05440860
C       64.29574554     -31.99869955      10.12195968
C       61.33958819     -31.99870424      10.62480804
C       62.81754098     -31.99869719      12.67785896
C       61.33950728     -31.99869998      12.17487652
F       64.29587293     -31.99869429       8.74530979
F       62.81744307     -31.99870244      14.05447772
C       66.51284100     -30.71874359      10.12202880
C       63.55668365     -30.71874829      10.62487716
C       65.03463644     -30.71874123      12.67792809
C       63.55660274     -30.71874402      12.17494565
F       66.51296839     -30.71873834       8.74537892
F       65.03453853     -30.71874648      14.05454685
C       68.72993646     -29.43878764      10.12209793
C       65.77377911     -29.43879233      10.62494629
C       67.25173189     -29.43878528      12.67799721
C       65.77369820     -29.43878807      12.17501477
F       68.73006384     -29.43878238       8.74544804
F       67.25163398     -29.43879053      14.05461597
C       70.94703191     -28.15883168      10.12216705
C       67.99087456     -28.15883638      10.62501541
C       69.46882735     -28.15882932      12.67806633
C       67.99079365     -28.15883211      12.17508390
F       70.94715930     -28.15882643       8.74551717
F       69.46872944     -28.15883457      14.05468510
C       73.16412737     -26.87887573      10.12223618
C       70.20797002     -26.87888042      10.62508454
C       71.68592281     -26.87887337      12.67813546
C       70.20788911     -26.87887616      12.17515302
F       73.16425476     -26.87887047       8.74558629
F       71.68582490     -26.87887862      14.05475422
C       75.38122283     -25.59891977      10.12230530
C       72.42506548     -25.59892447      10.62515366
C       73.90301827     -25.59891741      12.67820458
C       72.42498457     -25.59892021      12.17522215
F       75.38135022     -25.59891452       8.74565542
F       73.90292035     -25.59892266      14.05482335
C       77.59831828     -24.31896382      10.12237443
C       74.64216093     -24.31896851      10.62522279
C       76.12011372     -24.31896146      12.67827371
C       74.64208002     -24.31896425      12.17529127
F       77.59844567     -24.31895856       8.74572454
F       76.12001581     -24.31896671      14.05489247
C       79.81541374     -23.03900786      10.12244355
C       76.85925639     -23.03901256      10.62529191
C       78.33720918     -23.03900551      12.67834283
C       76.85917548     -23.03900830      12.17536040
F       79.81554113     -23.03900261       8.74579366
F       78.33711127     -23.03901075      14.05496160
C       82.03250920     -21.75905191      10.12251268
C       79.07635185     -21.75905660      10.62536104
C       80.55430464     -21.75904955      12.67841196
C       79.07627094     -21.75905234      12.17542952
F       82.03263659     -21.75904665       8.74586279
F       80.55420672     -21.75905480      14.05503072
C       84.24960465     -20.47909596      10.12258180
C       81.29344730     -20.47910065      10.62543016
C       82.77140009     -20.47909360      12.67848108
C       81.29336639     -20.47909639      12.17549865
F       84.24973204     -20.47909070       8.74593191
F       82.77130218     -20.47909884      14.05509985
C       86.46670011     -19.19914000      10.12265093
C       83.51054276     -19.19914469      10.62549928
C       84.98849555     -19.19913764      12.67855021
C       83.51046185     -19.19914043      12.17556777
F       86.46682750     -19.19913474       8.74600104
F       84.98839764     -19.19914289      14.05516897
C       88.68379557     -17.91918405      10.12272005
C       85.72763822     -17.91918874      10.62556841
C       87.20559101     -17.91918169      12.67861933
C       85.72755731     -17.91918448      12.17563689
F       88.68392296     -17.91917879       8.74607016
F       87.20549309     -17.91918693      14.05523810
C       90.90089102     -16.63922809      10.12278918
C       87.94473368     -16.63923278      10.62563753
C       89.42268646     -16.63922573      12.67868846
C       87.94465276     -16.63922852      12.17570602
F       90.90101841     -16.63922284       8.74613929
F       89.42258855     -16.63923098      14.05530722
C       93.11798648     -15.35927214      10.12285830
C       90.16182913     -15.35927683      10.62570666
C       91.63978192     -15.35926978      12.67875758
C       90.16174822     -15.35927257      12.17577514
F       93.11811387     -15.35926688       8.74620841
F       91.63968401     -15.35927502      14.05537634
C       95.33508194     -14.07931618      10.12292743
C       92.37892459     -14.07932087      10.62577578
C       93.85687738     -14.07931382      12.67882671
C       92.37884368     -14.07931661      12.17584427
F       95.33520933     -14.07931093       8.74627754
F       93.85677946     -14.07931907      14.05544547
C       97.55217740     -12.79936023      10.12299655
C       94.59602005     -12.79936492      10.62584491
C       96.07397283     -12.79935787      12.67889583
C       94.59593913     -12.79936066      12.17591339
F       97.55230478     -12.79935497       8.74634666
F       96.07387492     -12.79936311      14.05551459
C       99.76927285     -11.51940427      10.12306567
C       96.81311550     -11.51940897      10.62591403
C       98.29106829     -11.51940191      12.67896496
C       96.81303459     -11.51940470      12.17598252
F       99.76940024     -11.51939902       8.74641579
F       98.29097038     -11.51940716      14.05558372
C      101.98636831     -10.23944832      10.12313480
C       99.03021096     -10.23945301      10.62598316
C      100.50816375     -10.23944596      12.67903408
C       99.03013005     -10.23944875      12.17605164
F      101.98649570     -10.23944306       8.74648491
F      100.50806584     -10.23945120      14.05565284
C      104.20346377      -8.95949236      10.12320392
C      101.24730642      -8.95949706      10.62605228
C      102.72525920      -8.95949000      12.67910321
C      101.24722551      -8.95949279      12.17612077
F      104.20359115      -8.95948711       8.74655404
F      102.72516129      -8.95949525      14.05572197
C      106.42055922      -7.67953641      10.12327305
C      103.46440187      -7.67954110      10.62612141
C      104.94235466      -7.67953405      12.67917233
C      103.46432096      -7.67953684      12.17618989
F      106.42068661      -7.67953115       8.74662316
F      104.94225675      -7.67953930      14.05579109
C      108.63765468      -6.39958045      10.12334217
C      105.68149733      -6.39958515      10.62619053
C      107.15945012      -6.39957809      12.67924145
C      105.68141642      -6.39958088      12.17625902
F      108.63778207      -6.39957520       8.74669229
F      107.15935221      -6.39958334      14.05586022
C      110.85475014      -5.11962450      10.12341130
C      107.89859279      -5.11962919      10.62625966
C      109.37654558      -5.11962214      12.67931058
C      107.89851188      -5.11962493      12.17632814
F      110.85487753      -5.11961924       8.74676141
F      109.37644766      -5.11962739      14.05592934
C      113.07184559      -3.83966854      10.12348042
C      110.11568824      -3.83967324      10.62632878
C      111.59364103      -3.83966618      12.67937970
C      110.11560733      -3.83966897      12.17639727
F      113.07197298      -3.83966329       8.74683054
F      111.59354312      -3.83967143      14.05599847
C      115.28894105      -2.55971259      10.12354955
C      112.33278370      -2.55971728      10.62639791
C      113.81073649      -2.55971023      12.67944883
C      112.33270279      -2.55971302      12.17646639
F      115.28906844      -2.55970733       8.74689966
F      113.81063858      -2.55971548      14.05606759
C      117.50603651      -1.27975663      10.12361867
C      114.54987916      -1.27976133      10.62646703
C      116.02783195      -1.27975427      12.67951795
C      114.54979825      -1.27975707      12.17653552
F      117.50616390      -1.27975138       8.74696878
F      116.02773403      -1.27975952      14.05613672
C      119.72313196       0.00019932      10.12368780
C      116.76697461       0.00019463      10.62653615
C      118.24492740       0.00020168      12.67958708
C      116.76689370       0.00019889      12.17660464
F      119.72325935       0.00020458       8.74703791
F      118.24482949       0.00019643      14.05620584
C      121.94022742       1.28015528      10.12375692
C      118.98407007       1.28015058      10.62660528
C      120.46202286       1.28015763      12.67965620
C      118.98398916       1.28015484      12.17667376
F      121.94035481       1.28016053       8.74710703
F      120.46192495       1.28015239      14.05627497
C      124.15732288       2.56011123      10.12382605
C      121.20116553       2.56010654      10.62667440
C      122.67911832       2.56011359      12.67972533
C      121.20108462       2.56011080      12.17674289
F      124.15745027       2.56011649       8.74717616
F      122.67902040       2.56010834      14.05634409
C      126.37441833       3.84006718      10.12389517
C      123.41826099       3.84006249      10.62674353
C      124.89621377       3.84006954      12.67979445
C      123.41818007       3.84006675      12.17681201
F      126.37454572       3.84007244       8.74724528
F      124.89611586       3.84006430      14.05641321
C      128.59151379       5.12002314      10.12396430
C      125.63535644       5.12001845      10.62681265
C      127.11330923       5.12002550      12.67986358
C      125.63527553       5.12002271      12.17688114
F      128.59164118       5.12002840       8.74731441
F      127.11321132       5.12002025      14.05648234
C      130.80860925       6.39997909      10.12403342
C      127.85245190       6.39997440      10.62688178
C      129.33040469       6.39998145      12.67993270
C      127.85237099       6.39997866      12.17695026
F      130.80873664       6.39998435       8.74738353
F      129.33030677       6.39997621      14.05655146
C      133.02570471       7.67993505      10.12410254
C      130.06954736       7.67993036      10.62695090
C      131.54750014       7.67993741      12.68000183
C      130.06946644       7.67993462      12.17701939
F      133.02583209       7.67994030       8.74745266
F      131.54740223       7.67993216      14.05662059
C      135.24280016       8.95989100      10.12417167
C      132.28664281       8.95988631      10.62702003
C      133.76459560       8.95989336      12.68007095
C      132.28656190       8.95989057      12.17708851
F      135.24292755       8.95989626       8.74752178
F      133.76449769       8.95988812      14.05668971
C       64.29574215     -34.55860398      10.12195913
C       61.33958480     -34.55860867      10.62480748
C       62.81753759     -34.55860162      12.67785841
C       61.33950389     -34.55860441      12.17487597
F       64.29586954     -34.55859873       8.74530924
F       62.81743968     -34.55860687      14.05447717
C       66.51283761     -33.27864803      10.12202825
C       63.55668026     -33.27865272      10.62487661
C       65.03463304     -33.27864567      12.67792753
C       63.55659935     -33.27864846      12.17494509
F       66.51296499     -33.27864277       8.74537836
F       65.03453513     -33.27865091      14.05454630
C       68.72993306     -31.99869207      10.12209738
C       65.77377571     -31.99869677      10.62494573
C       67.25172850     -31.99868971      12.67799666
C       65.77369480     -31.99869250      12.17501422
F       68.73006045     -31.99868682       8.74544749
F       67.25163059     -31.99869496      14.05461542
C       70.94702852     -30.71873612      10.12216650
C       67.99087117     -30.71874081      10.62501486
C       69.46882396     -30.71873376      12.67806578
C       67.99079026     -30.71873655      12.17508334
F       70.94715591     -30.71873086       8.74551661
F       69.46872605     -30.71873900      14.05468454
C       73.16412398     -29.43878016      10.12223563
C       70.20796663     -29.43878486      10.62508398
C       71.68591942     -29.43877780      12.67813491
C       70.20788572     -29.43878059      12.17515247
F       73.16425137     -29.43877491       8.74558574
F       71.68582150     -29.43878305      14.05475367
C       75.38121943     -28.15882421      10.12230475
C       72.42506208     -28.15882890      10.62515311
C       73.90301487     -28.15882185      12.67820403
C       72.42498117     -28.15882464      12.17522159
F       75.38134682     -28.15881895       8.74565486
F       73.90291696     -28.15882710      14.05482279
C       77.59831489     -26.87886825      10.12237387
C       74.64215754     -26.87887295      10.62522223
C       76.12011033     -26.87886589      12.67827316
C       74.64207663     -26.87886868      12.17529072
F       77.59844228     -26.87886300       8.74572399
F       76.12001242     -26.87887114      14.05489192
C       79.81541035     -25.59891230      10.12244300
C       76.85925300     -25.59891699      10.62529136
C       78.33720579     -25.59890994      12.67834228
C       76.85917209     -25.59891273      12.17535984
F       79.81553774     -25.59890704       8.74579311
F       78.33710787     -25.59891519      14.05496104
C       82.03250580     -24.31895634      10.12251212
C       79.07634845     -24.31896104      10.62536048
C       80.55430124     -24.31895398      12.67841141
C       79.07626754     -24.31895677      12.17542897
F       82.03263319     -24.31895109       8.74586224
F       80.55420333     -24.31895923      14.05503017
C       84.24960126     -23.03900039      10.12258125
C       81.29344391     -23.03900508      10.62542961
C       82.77139670     -23.03899803      12.67848053
C       81.29336300     -23.03900082      12.17549809
F       84.24972865     -23.03899513       8.74593136
F       82.77129879     -23.03900328      14.05509929
C       86.46669672     -21.75904443      10.12265037
C       83.51053937     -21.75904913      10.62549873
C       84.98849216     -21.75904207      12.67854965
C       83.51045846     -21.75904487      12.17556722
F       86.46682411     -21.75903918       8.74600049
F       84.98839424     -21.75904732      14.05516842
C       88.68379217     -20.47908848      10.12271950
C       85.72763483     -20.47909317      10.62556786
C       87.20558761     -20.47908612      12.67861878
C       85.72755391     -20.47908891      12.17563634
F       88.68391956     -20.47908322       8.74606961
F       87.20548970     -20.47909137      14.05523754
C       90.90088763     -19.19913252      10.12278862
C       87.94473028     -19.19913722      10.62563698
C       89.42268307     -19.19913017      12.67868790
C       87.94464937     -19.19913296      12.17570547
F       90.90101502     -19.19912727       8.74613874
F       89.42258516     -19.19913541      14.05530667
C       93.11798309     -17.91917657      10.12285775
C       90.16182574     -17.91918126      10.62570611
C       91.63977853     -17.91917421      12.67875703
C       90.16174483     -17.91917700      12.17577459
F       93.11811048     -17.91917131       8.74620786
F       91.63968061     -17.91917946      14.05537579
C       95.33507855     -16.63922062      10.12292687
C       92.37892120     -16.63922531      10.62577523
C       93.85687398     -16.63921826      12.67882615
C       92.37884028     -16.63922105      12.17584372
F       95.33520593     -16.63921536       8.74627698
F       93.85677607     -16.63922350      14.05544492
C       97.55217400     -15.35926466      10.12299600
C       94.59601665     -15.35926935      10.62584435
C       96.07396944     -15.35926230      12.67889528
C       94.59593574     -15.35926509      12.17591284
F       97.55230139     -15.35925940       8.74634611
F       96.07387153     -15.35926755      14.05551404
C       99.76926946     -14.07930871      10.12306512
C       96.81311211     -14.07931340      10.62591348
C       98.29106490     -14.07930635      12.67896440
C       96.81303120     -14.07930914      12.17598196
F       99.76939685     -14.07930345       8.74641523
F       98.29096699     -14.07931159      14.05558317
C      101.98636492     -12.79935275      10.12313425
C       99.03020757     -12.79935744      10.62598260
C      100.50816035     -12.79935039      12.67903353
C       99.03012666     -12.79935318      12.17605109
F      101.98649230     -12.79934750       8.74648436
F      100.50806244     -12.79935564      14.05565229
C      104.20346037     -11.51939680      10.12320337
C      101.24730302     -11.51940149      10.62605173
C      102.72525581     -11.51939444      12.67910265
C      101.24722211     -11.51939723      12.17612021
F      104.20358776     -11.51939154       8.74655348
F      102.72515790     -11.51939968      14.05572141
C      106.42055583     -10.23944084      10.12327250
C      103.46439848     -10.23944553      10.62612085
C      104.94235127     -10.23943848      12.67917178
C      103.46431757     -10.23944127      12.17618934
F      106.42068322     -10.23943559       8.74662261
F      104.94225336     -10.23944373      14.05579054
C      108.63765129      -8.95948489      10.12334162
C      105.68149394      -8.95948958      10.62618998
C      107.15944673      -8.95948253      12.67924090
C      105.68141303      -8.95948532      12.17625846
F      108.63777868      -8.95947963       8.74669173
F      107.15934881      -8.95948777      14.05585966
C      110.85474674      -7.67952893      10.12341074
C      107.89858939      -7.67953363      10.62625910
C      109.37654218      -7.67952657      12.67931003
C      107.89850848      -7.67952936      12.17632759
F      110.85487413      -7.67952368       8.74676086
F      109.37644427      -7.67953182      14.05592879
C      113.07184220      -6.39957298      10.12347987
C      110.11568485      -6.39957767      10.62632823
C      111.59363764      -6.39957062      12.67937915
C      110.11560394      -6.39957341      12.17639671
F      113.07196959      -6.39956772       8.74682998
F      111.59353973      -6.39957586      14.05599791
C      115.28893766      -5.11961702      10.12354899
C      112.33278031      -5.11962172      10.62639735
C      113.81073310      -5.11961466      12.67944828
C      112.33269940      -5.11961745      12.17646584
F      115.28906505      -5.11961177       8.74689911
F      113.81063518      -5.11961991      14.05606704
C      117.50603311      -3.83966107      10.12361812
C      114.54987576      -3.83966576      10.62646648
C      116.02782855      -3.83965871      12.67951740
C      114.54979485      -3.83966150      12.17653496
F      117.50616050      -3.83965581       8.74696823
F      116.02773064      -3.83966396      14.05613616
C      119.72312857      -2.55970511      10.12368724
C      116.76697122      -2.55970981      10.62653560
C      118.24492401      -2.55970275      12.67958652
C      116.76689031      -2.55970554      12.17660409
F      119.72325596      -2.55969986       8.74703736
F      118.24482610      -2.55970800      14.05620529
C      121.94022403      -1.27974916      10.12375637
C      118.98406668      -1.27975385      10.62660473
C      120.46201947      -1.27974680      12.67965565
C      118.98398577      -1.27974959      12.17667321
F      121.94035142      -1.27974390       8.74710648
F      120.46192155      -1.27975205      14.05627441
C      124.15731948       0.00020680      10.12382549
C      121.20116214       0.00020210      10.62667385
C      122.67911492       0.00020916      12.67972477
C      121.20108122       0.00020636      12.17674234
F      124.15744687       0.00021205       8.74717561
F      122.67901701       0.00020391      14.05634354
C      126.37441494       1.28016275      10.12389462
C      123.41825759       1.28015806      10.62674298
C      124.89621038       1.28016511      12.67979390
C      123.41817668       1.28016232      12.17681146
F      126.37454233       1.28016801       8.74724473
F      124.89611247       1.28015986      14.05641266
C      128.59151040       2.56011871      10.12396374
C      125.63535305       2.56011401      10.62681210
C      127.11330584       2.56012106      12.67986302
C      125.63527214       2.56011827      12.17688059
F      128.59163779       2.56012396       8.74731385
F      127.11320792       2.56011582      14.05648179
C      130.80860586       3.84007466      10.12403287
C      127.85244851       3.84006997      10.62688122
C      129.33040129       3.84007702      12.67993215
C      127.85236759       3.84007423      12.17694971
F      130.80873324       3.84007992       8.74738298
F      129.33030338       3.84007177      14.05655091
C      133.02570131       5.12003062      10.12410199
C      130.06954396       5.12002592      10.62695035
C      131.54749675       5.12003297      12.68000127
C      130.06946305       5.12003018      12.17701884
F      133.02582870       5.12003587       8.74745210
F      131.54739884       5.12002773      14.05662004
C      135.24279677       6.39998657      10.12417112
C      132.28663942       6.39998188      10.62701947
C      133.76459221       6.39998893      12.68007040
C      132.28655851       6.39998614      12.17708796
F      135.24292416       6.39999183       8.74752123
F      133.76449430       6.39998368      14.05668916
C      137.45989223       7.67994252      10.12424024
C      134.50373488       7.67993783      10.62708860
C      135.98168766       7.67994488      12.68013952
C      134.50365397       7.67994209      12.17715708
F      137.46001961       7.67994778       8.74759035
F      135.98158975       7.67993964      14.05675829
C       66.51283421     -35.83855246      10.12202770
C       63.55667686     -35.83855715      10.62487606
C       65.03462965     -35.83855010      12.67792698
C       63.55659595     -35.83855289      12.17494454
F       66.51296160     -35.83854720       8.74537781
F       65.03453174     -35.83855535      14.05454574
C       68.72992967     -34.55859651      10.12209682
C       65.77377232     -34.55860120      10.62494518
C       67.25172511     -34.55859415      12.67799610
C       65.77369141     -34.55859694      12.17501367
F       68.73005706     -34.55859125       8.74544694
F       67.25162720     -34.55859939      14.05461487
C       70.94702513     -33.27864055      10.12216595
C       67.99086778     -33.27864524      10.62501431
C       69.46882057     -33.27863819      12.67806523
C       67.99078687     -33.27864098      12.17508279
F       70.94715252     -33.27863529       8.74551606
F       69.46872265     -33.27864344      14.05468399
C       73.16412058     -31.99868460      10.12223507
C       70.20796323     -31.99868929      10.62508343
C       71.68591602     -31.99868224      12.67813435
C       70.20788232     -31.99868503      12.17515192
F       73.16424797     -31.99867934       8.74558518
F       71.68581811     -31.99868748      14.05475312
C       75.38121604     -30.71872864      10.12230420
C       72.42505869     -30.71873333      10.62515255
C       73.90301148     -30.71872628      12.67820348
C       72.42497778     -30.71872907      12.17522104
F       75.38134343     -30.71872339       8.74565431
F       73.90291357     -30.71873153      14.05482224
C       77.59831150     -29.43877269      10.12237332
C       74.64215415     -29.43877738      10.62522168
C       76.12010694     -29.43877033      12.67827260
C       74.64207324     -29.43877312      12.17529016
F       77.59843889     -29.43876743       8.74572343
F       76.12000902     -29.43877557      14.05489137
C       79.81540695     -28.15881673      10.12244245
C       76.85924960     -28.15882143      10.62529080
C       78.33720239     -28.15881437      12.67834173
C       76.85916869     -28.15881716      12.17535929
F       79.81553434     -28.15881148       8.74579256
F       78.33710448     -28.15881962      14.05496049
C       82.03250241     -26.87886078      10.12251157
C       79.07634506     -26.87886547      10.62535993
C       80.55429785     -26.87885842      12.67841085
C       79.07626415     -26.87886121      12.17542841
F       82.03262980     -26.87885552       8.74586168
F       80.55419994     -26.87886366      14.05502962
C       84.24959787     -25.59890482      10.12258070
C       81.29344052     -25.59890952      10.62542905
C       82.77139331     -25.59890246      12.67847998
C       81.29335961     -25.59890525      12.17549754
F       84.24972526     -25.59889957       8.74593081
F       82.77129539     -25.59890771      14.05509874
C       86.46669332     -24.31894887      10.12264982
C       83.51053598     -24.31895356      10.62549818
C       84.98848876     -24.31894651      12.67854910
C       83.51045506     -24.31894930      12.17556666
F       86.46682071     -24.31894361       8.74599993
F       84.98839085     -24.31895176      14.05516786
C       88.68378878     -23.03899291      10.12271895
C       85.72763143     -23.03899761      10.62556730
C       87.20558422     -23.03899055      12.67861823
C       85.72755052     -23.03899334      12.17563579
F       88.68391617     -23.03898766       8.74606906
F       87.20548631     -23.03899580      14.05523699
C       90.90088424     -21.75903696      10.12278807
C       87.94472689     -21.75904165      10.62563643
C       89.42267968     -21.75903460      12.67868735
C       87.94464598     -21.75903739      12.17570491
F       90.90101163     -21.75903170       8.74613818
F       89.42258176     -21.75903985      14.05530611
C       93.11797970     -20.47908100      10.12285719
C       90.16182235     -20.47908570      10.62570555
C       91.63977513     -20.47907864      12.67875648
C       90.16174143     -20.47908143      12.17577404
F       93.11810708     -20.47907575       8.74620731
F       91.63967722     -20.47908389      14.05537524
C       95.33507515     -19.19912505      10.12292632
C       92.37891780     -19.19912974      10.62577468
C       93.85687059     -19.19912269      12.67882560
C       92.37883689     -19.19912548      12.17584316
F       95.33520254     -19.19911979       8.74627643
F       93.85677268     -19.19912794      14.05544436
C       97.55217061     -17.91916909      10.12299544
C       94.59601326     -17.91917379      10.62584380
C       96.07396605     -17.91916673      12.67889472
C       94.59593235     -17.91916953      12.17591229
F       97.55229800     -17.91916384       8.74634556
F       96.07386814     -17.91917198      14.05551349
C       99.76926607     -16.63921314      10.12306457
C       96.81310872     -16.63921783      10.62591293
C       98.29106150     -16.63921078      12.67896385
C       96.81302781     -16.63921357      12.17598141
F       99.76939345     -16.63920788       8.74641468
F       98.29096359     -16.63921603      14.05558261
C      101.98636152     -15.35925718      10.12313369
C       99.03020417     -15.35926188      10.62598205
C      100.50815696     -15.35925483      12.67903297
C       99.03012326     -15.35925762      12.17605054
F      101.98648891     -15.35925193       8.74648381
F      100.50805905     -15.35926007      14.05565174
C      104.20345698     -14.07930123      10.12320282
C      101.24729963     -14.07930592      10.62605118
C      102.72525242     -14.07929887      12.67910210
C      101.24721872     -14.07930166      12.17611966
F      104.20358437     -14.07929597       8.74655293
F      102.72515451     -14.07930412      14.05572086
C      106.42055244     -12.79934528      10.12327194
C      103.46439509     -12.79934997      10.62612030
C      104.94234788     -12.79934292      12.67917122
C      103.46431418     -12.79934571      12.17618879
F      106.42067983     -12.79934002       8.74662205
F      104.94224996     -12.79934816      14.05578999
C      108.63764789     -11.51938932      10.12334107
C      105.68149054     -11.51939401      10.62618942
C      107.15944333     -11.51938696      12.67924035
C      105.68140963     -11.51938975      12.17625791
F      108.63777528     -11.51938406       8.74669118
F      107.15934542     -11.51939221      14.05585911
C      110.85474335     -10.23943337      10.12341019
C      107.89858600     -10.23943806      10.62625855
C      109.37653879     -10.23943101      12.67930947
C      107.89850509     -10.23943380      12.17632704
F      110.85487074     -10.23942811       8.74676030
F      109.37644088     -10.23943625      14.05592824
C      113.07183881      -8.95947741      10.12347932
C      110.11568146      -8.95948210      10.62632767
C      111.59363425      -8.95947505      12.67937860
C      110.11560055      -8.95947784      12.17639616
F      113.07196620      -8.95947216       8.74682943
F      111.59353633      -8.95948030      14.05599736
C      115.28893426      -7.67952146      10.12354844
C      112.33277691      -7.67952615      10.62639680
C      113.81072970      -7.67951910      12.67944772
C      112.33269600      -7.67952189      12.17646528
F      115.28906165      -7.67951620       8.74689855
F      113.81063179      -7.67952434      14.05606649
C      117.50602972      -6.39956550      10.12361757
C      114.54987237      -6.39957019      10.62646592
C      116.02782516      -6.39956314      12.67951685
C      114.54979146      -6.39956593      12.17653441
F      117.50615711      -6.39956025       8.74696768
F      116.02772725      -6.39956839      14.05613561
C      119.72312518      -5.11960955      10.12368669
C      116.76696783      -5.11961424      10.62653505
C      118.24492062      -5.11960719      12.67958597
C      116.76688692      -5.11960998      12.17660353
F      119.72325257      -5.11960429       8.74703680
F      118.24482270      -5.11961243      14.05620473
C      121.94022063      -3.83965359      10.12375582
C      118.98406329      -3.83965829      10.62660417
C      120.46201607      -3.83965123      12.67965510
C      118.98398237      -3.83965402      12.17667266
F      121.94034802      -3.83964834       8.74710593
F      120.46191816      -3.83965648      14.05627386
C      124.15731609      -2.55969764      10.12382494
C      121.20115874      -2.55970233      10.62667330
C      122.67911153      -2.55969528      12.67972422
C      121.20107783      -2.55969807      12.17674178
F      124.15744348      -2.55969238       8.74717505
F      122.67901362      -2.55970053      14.05634298
C      126.37441155      -1.27974168      10.12389406
C      123.41825420      -1.27974638      10.62674242
C      124.89620699      -1.27973932      12.67979335
C      123.41817329      -1.27974211      12.17681091
F      126.37453894      -1.27973643       8.74724418
F      124.89610907      -1.27974457      14.05641211
C      128.59150701       0.00021427      10.12396319
C      125.63534966       0.00020958      10.62681155
C      127.11330244       0.00021663      12.67986247
C      125.63526874       0.00021384      12.17688003
F      128.59163439       0.00021953       8.74731330
F      127.11320453       0.00021138      14.05648123
C      130.80860246       1.28017023      10.12403231
C      127.85244511       1.28016553      10.62688067
C      129.33039790       1.28017259      12.67993159
C      127.85236420       1.28016980      12.17694916
F      130.80872985       1.28017548       8.74738243
F      129.33029999       1.28016734      14.05655036
C      133.02569792       2.56012618      10.12410144
C      130.06954057       2.56012149      10.62694980
C      131.54749336       2.56012854      12.68000072
C      130.06945966       2.56012575      12.17701828
F      133.02582531       2.56013144       8.74745155
F      131.54739545       2.56012329      14.05661948
C      135.24279338       3.84008214      10.12417056
C      132.28663603       3.84007744      10.62701892
C      133.76458881       3.84008450      12.68006984
C      132.28655512       3.84008170      12.17708741
F      135.24292076       3.84008739       8.74752068
F      133.76449090       3.84007925      14.05668861
C      137.45988883       5.12003809      10.12423969
C      134.50373148       5.12003340      10.62708805
C      135.98168427       5.12004045      12.68013897
C      134.50365057       5.12003766      12.17715653
F      137.46001622       5.12004335       8.74758980
F      135.98158636       5.12003520      14.05675773
C      139.67698429       6.39999405      10.12430881
C      136.72082694       6.39998935      10.62715717
C      138.19877973       6.39999640      12.68020809
C      136.72074603       6.39999361      12.17722566
F      139.67711168       6.39999930       8.74765892
F      138.19868182       6.39999116      14.05682686
C       68.72992628     -37.11850094      10.12209627
C       65.77376893     -37.11850563      10.62494463
C       67.25172172     -37.11849858      12.67799555
C       65.77368802     -37.11850137      12.17501311
F       68.73005367     -37.11849568       8.74544638
F       67.25162380     -37.11850383      14.05461431
C       70.94702173     -35.83854498      10.12216539
C       67.99086438     -35.83854968      10.62501375
C       69.46881717     -35.83854263      12.67806468
C       67.99078347     -35.83854542      12.17508224
F       70.94714912     -35.83853973       8.74551551
F       69.46871926     -35.83854787      14.05468344
C       73.16411719     -34.55858903      10.12223452
C       70.20795984     -34.55859372      10.62508288
C       71.68591263     -34.55858667      12.67813380
C       70.20787893     -34.55858946      12.17515136
F       73.16424458     -34.55858377       8.74558463
F       71.68581472     -34.55859192      14.05475256
C       75.38121265     -33.27863308      10.12230364
C       72.42505530     -33.27863777      10.62515200
C       73.90300809     -33.27863072      12.67820292
C       72.42497439     -33.27863351      12.17522049
F       75.38134004     -33.27862782       8.74565376
F       73.90291017     -33.27863596      14.05482169
C       77.59830810     -31.99867712      10.12237277
C       74.64215075     -31.99868181      10.62522113
C       76.12010354     -31.99867476      12.67827205
C       74.64206984     -31.99867755      12.17528961
F       77.59843549     -31.99867186       8.74572288
F       76.12000563     -31.99868001      14.05489081
C       79.81540356     -30.71872117      10.12244189
C       76.85924621     -30.71872586      10.62529025
C       78.33719900     -30.71871881      12.67834117
C       76.85916530     -30.71872160      12.17535874
F       79.81553095     -30.71871591       8.74579201
F       78.33710109     -30.71872405      14.05495994
C       82.03249902     -29.43876521      10.12251102
C       79.07634167     -29.43876990      10.62535938
C       80.55429446     -29.43876285      12.67841030
C       79.07626076     -29.43876564      12.17542786
F       82.03262641     -29.43875996       8.74586113
F       80.55419654     -29.43876810      14.05502906
C       84.24959447     -28.15880926      10.12258014
C       81.29343713     -28.15881395      10.62542850
C       82.77138991     -28.15880690      12.67847942
C       81.29335621     -28.15880969      12.17549699
F       84.24972186     -28.15880400       8.74593025
F       82.77129200     -28.15881214      14.05509819
C       86.46668993     -26.87885330      10.12264927
C       83.51053258     -26.87885799      10.62549762
C       84.98848537     -26.87885094      12.67854855
C       83.51045167     -26.87885373      12.17556611
F       86.46681732     -26.87884805       8.74599938
F       84.98838746     -26.87885619      14.05516731
C       88.68378539     -25.59889735      10.12271839
C       85.72762804     -25.59890204      10.62556675
C       87.20558083     -25.59889499      12.67861767
C       85.72754713     -25.59889778      12.17563524
F       88.68391278     -25.59889209       8.74606850
F       87.20548291     -25.59890023      14.05523644
C       90.90088085     -24.31894139      10.12278752
C       87.94472350     -24.31894609      10.62563587
C       89.42267628     -24.31893903      12.67868680
C       87.94464258     -24.31894182      12.17570436
F       90.90100823     -24.31893614       8.74613763
F       89.42257837     -24.31894428      14.05530556
C       93.11797630     -23.03898544      10.12285664
C       90.16181895     -23.03899013      10.62570500
C       91.63977174     -23.03898308      12.67875592
C       90.16173804     -23.03898587      12.17577348
F       93.11810369     -23.03898018       8.74620675
F       91.63967383     -23.03898832      14.05537469
C       95.33507176     -21.75902948      10.12292577
C       92.37891441     -21.75903418      10.62577412
C       93.85686720     -21.75902712      12.67882505
C       92.37883350     -21.75902991      12.17584261
F       95.33519915     -21.75902423       8.74627588
F       93.85676929     -21.75903237      14.05544381
C       97.55216722     -20.47907353      10.12299489
C       94.59600987     -20.47907822      10.62584325
C       96.07396265     -20.47907117      12.67889417
C       94.59592896     -20.47907396      12.17591173
F       97.55229460     -20.47906827       8.74634500
F       96.07386474     -20.47907642      14.05551293
C       99.76926267     -19.19911757      10.12306402
C       96.81310532     -19.19912227      10.62591237
C       98.29105811     -19.19911521      12.67896330
C       96.81302441     -19.19911800      12.17598086
F       99.76939006     -19.19911232       8.74641413
F       98.29096020     -19.19912046      14.05558206
C      101.98635813     -17.91916162      10.12313314
C       99.03020078     -17.91916631      10.62598150
C      100.50815357     -17.91915926      12.67903242
C       99.03011987     -17.91916205      12.17604998
F      101.98648552     -17.91915636       8.74648325
F      100.50805566     -17.91916451      14.05565118
C      104.20345359     -16.63920566      10.12320226
C      101.24729624     -16.63921036      10.62605062
C      102.72524903     -16.63920330      12.67910155
C      101.24721533     -16.63920609      12.17611911
F      104.20358098     -16.63920041       8.74655238
F      102.72515111     -16.63920855      14.05572031
C      106.42054904     -15.35924971      10.12327139
C      103.46439169     -15.35925440      10.62611975
C      104.94234448     -15.35924735      12.67917067
C      103.46431078     -15.35925014      12.17618823
F      106.42067643     -15.35924445       8.74662150
F      104.94224657     -15.35925260      14.05578943
C      108.63764450     -14.07929375      10.12334051
C      105.68148715     -14.07929845      10.62618887
C      107.15943994     -14.07929139      12.67923979
C      105.68140624     -14.07929419      12.17625736
F      108.63777189     -14.07928850       8.74669063
F      107.15934203     -14.07929664      14.05585856
C      110.85473996     -12.79933780      10.12340964
C      107.89858261     -12.79934249      10.62625800
C      109.37653540     -12.79933544      12.67930892
C      107.89850170     -12.79933823      12.17632648
F      110.85486735     -12.79933254       8.74675975
F      109.37643748     -12.79934069      14.05592768
C      113.07183541     -11.51938184      10.12347876
C      110.11567806     -11.51938654      10.62632712
C      111.59363085     -11.51937949      12.67937804
C      110.11559715     -11.51938228      12.17639561
F      113.07196280     -11.51937659       8.74682888
F      111.59353294     -11.51938473      14.05599681
C      115.28893087     -10.23942589      10.12354789
C      112.33277352     -10.23943058      10.62639625
C      113.81072631     -10.23942353      12.67944717
C      112.33269261     -10.23942632      12.17646473
F      115.28905826     -10.23942063       8.74689800
F      113.81062840     -10.23942878      14.05606593
C      117.50602633      -8.95946994      10.12361701
C      114.54986898      -8.95947463      10.62646537
C      116.02782177      -8.95946758      12.67951629
C      114.54978807      -8.95947037      12.17653386
F      117.50615372      -8.95946468       8.74696712
F      116.02772385      -8.95947282      14.05613506
C      119.72312178      -7.67951398      10.12368614
C      116.76696444      -7.67951867      10.62653450
C      118.24491722      -7.67951162      12.67958542
C      116.76688352      -7.67951441      12.17660298
F      119.72324917      -7.67950872       8.74703625
F      118.24481931      -7.67951687      14.05620418
C      121.94021724      -6.39955803      10.12375526
C      118.98405989      -6.39956272      10.62660362
C      120.46201268      -6.39955567      12.67965454
C      118.98397898      -6.39955846      12.17667211
F      121.94034463      -6.39955277       8.74710537
F      120.46191477      -6.39956091      14.05627331
C      124.15731270      -5.11960207      10.12382439
C      121.20115535      -5.11960676      10.62667274
C      122.67910814      -5.11959971      12.67972367
C      121.20107444      -5.11960250      12.17674123
F      124.15744009      -5.11959682       8.74717450
F      122.67901022      -5.11960496      14.05634243
C      126.37440816      -3.83964612      10.12389351
C      123.41825081      -3.83965081      10.62674187
C      124.89620359      -3.83964376      12.67979279
C      123.41816989      -3.83964655      12.17681035
F      126.37453554      -3.83964086       8.74724362
F      124.89610568      -3.83964900      14.05641156
C      128.59150361      -2.55969016      10.12396264
C      125.63534626      -2.55969485      10.62681099
C      127.11329905      -2.55968780      12.67986192
C      125.63526535      -2.55969059      12.17687948
F      128.59163100      -2.55968491       8.74731275
F      127.11320114      -2.55969305      14.05648068
C      130.80859907      -1.27973421      10.12403176
C      127.85244172      -1.27973890      10.62688012
C      129.33039451      -1.27973185      12.67993104
C      127.85236081      -1.27973464      12.17694860
F      130.80872646      -1.27972895       8.74738187
F      129.33029660      -1.27973709      14.05654980
C      133.02569453       0.00022175      10.12410089
C      130.06953718       0.00021705      10.62694924
C      131.54748996       0.00022411      12.68000017
C      130.06945627       0.00022132      12.17701773
F      133.02582191       0.00022700       8.74745100
F      131.54739205       0.00021886      14.05661893
C      135.24278998       1.28017770      10.12417001
C      132.28663263       1.28017301      10.62701837
C      133.76458542       1.28018006      12.68006929
C      132.28655172       1.28017727      12.17708685
F      135.24291737       1.28018296       8.74752012
F      133.76448751       1.28017481      14.05668805
C      137.45988544       2.56013366      10.12423913
C      134.50372809       2.56012896      10.62708749
C      135.98168088       2.56013602      12.68013842
C      134.50364718       2.56013323      12.17715598
F      137.46001283       2.56013891       8.74758925
F      135.98158297       2.56013077      14.05675718
C      139.67698090       3.84008961      10.12430826
C      136.72082355       3.84008492      10.62715662
C      138.19877634       3.84009197      12.68020754
C      136.72074264       3.84008918      12.17722510
F      139.67710829       3.84009487       8.74765837
F      138.19867842       3.84008672      14.05682630
C      141.89407635       5.12004557      10.12437738
C      138.93791900       5.12004087      10.62722574
C      140.41587179       5.12004793      12.68027667
C      138.93783809       5.12004514      12.17729423
F      141.89420374       5.12005082       8.74772750
F      140.41577388       5.12004268      14.05689543
C       70.94701834     -38.39844942      10.12216484
C       67.99086099     -38.39845411      10.62501320
C       69.46881378     -38.39844706      12.67806412
C       67.99078008     -38.39844985      12.17508168
F       70.94714573     -38.39844416       8.74551495
F       69.46871587     -38.39845231      14.05468289
C       73.16411380     -37.11849346      10.12223397
C       70.20795645     -37.11849816      10.62508232
C       71.68590924     -37.11849110      12.67813325
C       70.20787554     -37.11849389      12.17515081
F       73.16424119     -37.11848821       8.74558408
F       71.68581132     -37.11849635      14.05475201
C       75.38120925     -35.83853751      10.12230309
C       72.42505191     -35.83854220      10.62515145
C       73.90300469     -35.83853515      12.67820237
C       72.42497099     -35.83853794      12.17521993
F       75.38133664     -35.83853225       8.74565320
F       73.90290678     -35.83854040      14.05482113
C       77.59830471     -34.55858155      10.12237222
C       74.64214736     -34.55858625      10.62522057
C       76.12010015     -34.55857919      12.67827150
C       74.64206645     -34.55858199      12.17528906
F       77.59843210     -34.55857630       8.74572233
F       76.12000224     -34.55858444      14.05489026
C       79.81540017     -33.27862560      10.12244134
C       76.85924282     -33.27863029      10.62528970
C       78.33719561     -33.27862324      12.67834062
C       76.85916191     -33.27862603      12.17535818
F       79.81552756     -33.27862034       8.74579145
F       78.33709769     -33.27862849      14.05495938
C       82.03249563     -31.99866964      10.12251046
C       79.07633828     -31.99867434      10.62535882
C       80.55429106     -31.99866729      12.67840975
C       79.07625736     -31.99867008      12.17542731
F       82.03262301     -31.99866439       8.74586058
F       80.55419315     -31.99867253      14.05502851
C       84.24959108     -30.71871369      10.12257959
C       81.29343373     -30.71871838      10.62542795
C       82.77138652     -30.71871133      12.67847887
C       81.29335282     -30.71871412      12.17549643
F       84.24971847     -30.71870843       8.74592970
F       82.77128861     -30.71871658      14.05509763
C       86.46668654     -29.43875774      10.12264871
C       83.51052919     -29.43876243      10.62549707
C       84.98848198     -29.43875538      12.67854800
C       83.51044828     -29.43875817      12.17556556
F       86.46681393     -29.43875248       8.74599883
F       84.98838407     -29.43876062      14.05516676
C       88.68378200     -28.15880178      10.12271784
C       85.72762465     -28.15880647      10.62556620
C       87.20557743     -28.15879942      12.67861712
C       85.72754374     -28.15880221      12.17563468
F       88.68390938     -28.15879652       8.74606795
F       87.20547952     -28.15880467      14.05523588
C       90.90087745     -26.87884583      10.12278696
C       87.94472010     -26.87885052      10.62563532
C       89.42267289     -26.87884347      12.67868624
C       87.94463919     -26.87884626      12.17570381
F       90.90100484     -26.87884057       8.74613708
F       89.42257498     -26.87884871      14.05530501
C       93.11797291     -25.59888987      10.12285609
C       90.16181556     -25.59889456      10.62570445
C       91.63976835     -25.59888751      12.67875537
C       90.16173465     -25.59889030      12.17577293
F       93.11810030     -25.59888462       8.74620620
F       91.63967044     -25.59889276      14.05537413
C       95.33506837     -24.31893392      10.12292521
C       92.37891102     -24.31893861      10.62577357
C       93.85686381     -24.31893156      12.67882449
C       92.37883011     -24.31893435      12.17584206
F       95.33519575     -24.31892866       8.74627533
F       93.85676589     -24.31893680      14.05544326
C       97.55216382     -23.03897796      10.12299434
C       94.59600647     -23.03898265      10.62584270
C       96.07395926     -23.03897560      12.67889362
C       94.59592556     -23.03897839      12.17591118
F       97.55229121     -23.03897271       8.74634445
F       96.07386135     -23.03898085      14.05551238
C       99.76925928     -21.75902201      10.12306346
C       96.81310193     -21.75902670      10.62591182
C       98.29105472     -21.75901965      12.67896274
C       96.81302102     -21.75902244      12.17598031
F       99.76938667     -21.75901675       8.74641357
F       98.29095681     -21.75902489      14.05558151
C      101.98635474     -20.47906605      10.12313259
C       99.03019739     -20.47907075      10.62598094
C      100.50815018     -20.47906369      12.67903187
C       99.03011648     -20.47906648      12.17604943
F      101.98648213     -20.47906080       8.74648270
F      100.50805226     -20.47906894      14.05565063
C      104.20345019     -19.19911010      10.12320171
C      101.24729284     -19.19911479      10.62605007
C      102.72524563     -19.19910774      12.67910099
C      101.24721193     -19.19911053      12.17611855
F      104.20357758     -19.19910484       8.74655182
F      102.72514772     -19.19911298      14.05571976
C      106.42054565     -17.91915414      10.12327084
C      103.46438830     -17.91915884      10.62611919
C      104.94234109     -17.91915178      12.67917012
C      103.46430739     -17.91915457      12.17618768
F      106.42067304     -17.91914889       8.74662095
F      104.94224318     -17.91915703      14.05578888
C      108.63764111     -16.63919819      10.12333996
C      105.68148376     -16.63920288      10.62618832
C      107.15943655     -16.63919583      12.67923924
C      105.68140285     -16.63919862      12.17625680
F      108.63776850     -16.63919293       8.74669007
F      107.15933863     -16.63920108      14.05585800
C      110.85473656     -15.35924223      10.12340909
C      107.89857921     -15.35924693      10.62625744
C      109.37653200     -15.35923987      12.67930837
C      107.89849830     -15.35924266      12.17632593
F      110.85486395     -15.35923698       8.74675920
F      109.37643409     -15.35924512      14.05592713
C      113.07183202     -14.07928628      10.12347821
C      110.11567467     -14.07929097      10.62632657
C      111.59362746     -14.07928392      12.67937749
C      110.11559376     -14.07928671      12.17639505
F      113.07195941     -14.07928102       8.74682832
F      111.59352955     -14.07928917      14.05599625
C      115.28892748     -12.79933032      10.12354733
C      112.33277013     -12.79933502      10.62639569
C      113.81072292     -12.79932796      12.67944662
C      112.33268922     -12.79933076      12.17646418
F      115.28905487     -12.79932507       8.74689745
F      113.81062500     -12.79933321      14.05606538
C      117.50602293     -11.51937437      10.12361646
C      114.54986559     -11.51937906      10.62646482
C      116.02781837     -11.51937201      12.67951574
C      114.54978467     -11.51937480      12.17653330
F      117.50615032     -11.51936911       8.74696657
F      116.02772046     -11.51937726      14.05613450
C      119.72311839     -10.23941841      10.12368558
C      116.76696104     -10.23942311      10.62653394
C      118.24491383     -10.23941605      12.67958487
C      116.76688013     -10.23941885      12.17660243
F      119.72324578     -10.23941316       8.74703570
F      118.24481592     -10.23942130      14.05620363
C      121.94021385      -8.95946246      10.12375471
C      118.98405650      -8.95946715      10.62660307
C      120.46200929      -8.95946010      12.67965399
C      118.98397559      -8.95946289      12.17667155
F      121.94034124      -8.95945720       8.74710482
F      120.46191137      -8.95946535      14.05627275
C      124.15730931      -7.67950650      10.12382383
C      121.20115196      -7.67951120      10.62667219
C      122.67910474      -7.67950415      12.67972311
C      121.20107104      -7.67950694      12.17674068
F      124.15743669      -7.67950125       8.74717395
F      122.67900683      -7.67950939      14.05634188
C      126.37440476      -6.39955055      10.12389296
C      123.41824741      -6.39955524      10.62674132
C      124.89620020      -6.39954819      12.67979224
C      123.41816650      -6.39955098      12.17680980
F      126.37453215      -6.39954529       8.74724307
F      124.89610229      -6.39955344      14.05641100
C      128.59150022      -5.11959460      10.12396208
C      125.63534287      -5.11959929      10.62681044
C      127.11329566      -5.11959224      12.67986136
C      125.63526196      -5.11959503      12.17687893
F      128.59162761      -5.11958934       8.74731220
F      127.11319775      -5.11959748      14.05648013
C      130.80859568      -3.83963864      10.12403121
C      127.85243833      -3.83964333      10.62687957
C      129.33039112      -3.83963628      12.67993049
C      127.85235742      -3.83963907      12.17694805
F      130.80872306      -3.83963338       8.74738132
F      129.33029320      -3.83964153      14.05654925
C      133.02569113      -2.55968269      10.12410033
C      130.06953378      -2.55968738      10.62694869
C      131.54748657      -2.55968033      12.67999961
C      130.06945287      -2.55968312      12.17701718
F      133.02581852      -2.55967743       8.74745044
F      131.54738866      -2.55968557      14.05661838
C      135.24278659      -1.27972673      10.12416946
C      132.28662924      -1.27973142      10.62701781
C      133.76458203      -1.27972437      12.68006874
C      132.28654833      -1.27972716      12.17708630
F      135.24291398      -1.27972148       8.74751957
F      133.76448412      -1.27972962      14.05668750
C      137.45988205       0.00022922      10.12423858
C      134.50372470       0.00022453      10.62708694
C      135.98167749       0.00023158      12.68013786
C      134.50364379       0.00022879      12.17715542
F      137.46000944       0.00023448       8.74758869
F      135.98157957       0.00022634      14.05675663
C      139.67697750       1.28018518      10.12430771
C      136.72082015       1.28018048      10.62715606
C      138.19877294       1.28018754      12.68020699
C      136.72073924       1.28018475      12.17722455
F      139.67710489       1.28019043       8.74765782
F      138.19867503       1.28018229      14.05682575
C      141.89407296       2.56014113      10.12437683
C      138.93791561       2.56013644      10.62722519
C      140.41586840       2.56014349      12.68027611
C      138.93783470       2.56014070      12.17729367
F      141.89420035       2.56014639       8.74772694
F      140.41577049       2.56013825      14.05689488
C      144.11116842       3.84009709      10.12444596
C      141.15501107       3.84009239      10.62729431
C      142.63296386       3.84009945      12.68034524
C      141.15493016       3.84009666      12.17736280
F      144.11129581       3.84010234       8.74779607
F      142.63286594       3.84009420      14.05696400
C       73.16411040     -39.67839790      10.12223341
C       70.20795306     -39.67840259      10.62508177
C       71.68590584     -39.67839554      12.67813269
C       70.20787214     -39.67839833      12.17515026
F       73.16423779     -39.67839264       8.74558353
F       71.68580793     -39.67840078      14.05475146
C       75.38120586     -38.39844194      10.12230254
C       72.42504851     -38.39844664      10.62515090
C       73.90300130     -38.39843958      12.67820182
C       72.42496760     -38.39844237      12.17521938
F       75.38133325     -38.39843669       8.74565265
F       73.90290339     -38.39844483      14.05482058
C       77.59830132     -37.11848599      10.12237166
C       74.64214397     -37.11849068      10.62522002
C       76.12009676     -37.11848363      12.67827094
C       74.64206306     -37.11848642      12.17528851
F       77.59842871     -37.11848073       8.74572177
F       76.11999884     -37.11848888      14.05488971
C       79.81539678     -35.83853003      10.12244079
C       76.85923943     -35.83853473      10.62528914
C       78.33719221     -35.83852767      12.67834007
C       76.85915851     -35.83853046      12.17535763
F       79.81552416     -35.83852478       8.74579090
F       78.33709430     -35.83853292      14.05495883
C       82.03249223     -34.55857408      10.12250991
C       79.07633488     -34.55857877      10.62535827
C       80.55428767     -34.55857172      12.67840919
C       79.07625397     -34.55857451      12.17542675
F       82.03261962     -34.55856882       8.74586002
F       80.55418976     -34.55857697      14.05502796
C       84.24958769     -33.27861812      10.12257904
C       81.29343034     -33.27862282      10.62542739
C       82.77138313     -33.27861576      12.67847832
C       81.29334943     -33.27861855      12.17549588
F       84.24971508     -33.27861287       8.74592915
F       82.77128522     -33.27862101      14.05509708
C       86.46668315     -31.99866217      10.12264816
C       83.51052580     -31.99866686      10.62549652
C       84.98847858     -31.99865981      12.67854744
C       83.51044489     -31.99866260      12.17556500
F       86.46681053     -31.99865691       8.74599827
F       84.98838067     -31.99866506      14.05516620
C       88.68377860     -30.71870621      10.12271729
C       85.72762125     -30.71871091      10.62556564
C       87.20557404     -30.71870385      12.67861657
C       85.72754034     -30.71870665      12.17563413
F       88.68390599     -30.71870096       8.74606740
F       87.20547613     -30.71870910      14.05523533
C       90.90087406     -29.43875026      10.12278641
C       87.94471671     -29.43875495      10.62563477
C       89.42266950     -29.43874790      12.67868569
C       87.94463580     -29.43875069      12.17570325
F       90.90100145     -29.43874500       8.74613652
F       89.42257159     -29.43875315      14.05530445
C       93.11796952     -28.15879430      10.12285553
C       90.16181217     -28.15879900      10.62570389
C       91.63976496     -28.15879195      12.67875482
C       90.16173126     -28.15879474      12.17577238
F       93.11809691     -28.15878905       8.74620565
F       91.63966704     -28.15879719      14.05537358
C       95.33506497     -26.87883835      10.12292466
C       92.37890762     -26.87884304      10.62577302
C       93.85686041     -26.87883599      12.67882394
C       92.37882671     -26.87883878      12.17584150
F       95.33519236     -26.87883309       8.74627477
F       93.85676250     -26.87884124      14.05544270
C       97.55216043     -25.59888240      10.12299378
C       94.59600308     -25.59888709      10.62584214
C       96.07395587     -25.59888004      12.67889307
C       94.59592217     -25.59888283      12.17591063
F       97.55228782     -25.59887714       8.74634390
F       96.07385796     -25.59888528      14.05551183
C       99.76925589     -24.31892644      10.12306291
C       96.81309854     -24.31893113      10.62591127
C       98.29105133     -24.31892408      12.67896219
C       96.81301763     -24.31892687      12.17597975
F       99.76938328     -24.31892118       8.74641302
F       98.29095341     -24.31892933      14.05558095
C      101.98635134     -23.03897049      10.12313203
C       99.03019399     -23.03897518      10.62598039
C      100.50814678     -23.03896813      12.67903131
C       99.03011308     -23.03897092      12.17604888
F      101.98647873     -23.03896523       8.74648215
F      100.50804887     -23.03897337      14.05565008
C      104.20344680     -21.75901453      10.12320116
C      101.24728945     -21.75901922      10.62604952
C      102.72524224     -21.75901217      12.67910044
C      101.24720854     -21.75901496      12.17611800
F      104.20357419     -21.75900928       8.74655127
F      102.72514433     -21.75901742      14.05571920
C      106.42054226     -20.47905858      10.12327028
C      103.46438491     -20.47906327      10.62611864
C      104.94233770     -20.47905622      12.67916956
C      103.46430400     -20.47905901      12.17618713
F      106.42066965     -20.47905332       8.74662040
F      104.94223978     -20.47906146      14.05578833
C      108.63763771     -19.19910262      10.12333941
C      105.68148037     -19.19910731      10.62618777
C      107.15943315     -19.19910026      12.67923869
C      105.68139945     -19.19910305      12.17625625
F      108.63776510     -19.19909737       8.74668952
F      107.15933524     -19.19910551      14.05585745
C      110.85473317     -17.91914667      10.12340853
C      107.89857582     -17.91915136      10.62625689
C      109.37652861     -17.91914431      12.67930781
C      107.89849491     -17.91914710      12.17632538
F      110.85486056     -17.91914141       8.74675864
F      109.37643070     -17.91914955      14.05592658
C      113.07182863     -16.63919071      10.12347766
C      110.11567128     -16.63919541      10.62632601
C      111.59362407     -16.63918835      12.67937694
C      110.11559037     -16.63919114      12.17639450
F      113.07195602     -16.63918546       8.74682777
F      111.59352615     -16.63919360      14.05599570
C      115.28892409     -15.35923476      10.12354678
C      112.33276674     -15.35923945      10.62639514
C      113.81071952     -15.35923240      12.67944606
C      112.33268582     -15.35923519      12.17646363
F      115.28905147     -15.35922950       8.74689689
F      113.81062161     -15.35923765      14.05606483
C      117.50601954     -14.07927880      10.12361591
C      114.54986219     -14.07928350      10.62646426
C      116.02781498     -14.07927644      12.67951519
C      114.54978128     -14.07927923      12.17653275
F      117.50614693     -14.07927355       8.74696602
F      116.02771707     -14.07928169      14.05613395
C      119.72311500     -12.79932285      10.12368503
C      116.76695765     -12.79932754      10.62653339
C      118.24491044     -12.79932049      12.67958431
C      116.76687674     -12.79932328      12.17660187
F      119.72324239     -12.79931759       8.74703514
F      118.24481253     -12.79932574      14.05620308
C      121.94021046     -11.51936689      10.12375416
C      118.98405311     -11.51937159      10.62660251
C      120.46200589     -11.51936453      12.67965344
C      118.98397220     -11.51936732      12.17667100
F      121.94033784     -11.51936164       8.74710427
F      120.46190798     -11.51936978      14.05627220
C      124.15730591     -10.23941094      10.12382328
C      121.20114856     -10.23941563      10.62667164
C      122.67910135     -10.23940858      12.67972256
C      121.20106765     -10.23941137      12.17674012
F      124.15743330     -10.23940568       8.74717339
F      122.67900344     -10.23941383      14.05634132
C      126.37440137      -8.95945498      10.12389241
C      123.41824402      -8.95945968      10.62674076
C      124.89619681      -8.95945262      12.67979169
C      123.41816311      -8.95945542      12.17680925
F      126.37452876      -8.95944973       8.74724252
F      124.89609890      -8.95945787      14.05641045
C      128.59149683      -7.67949903      10.12396153
C      125.63533948      -7.67950372      10.62680989
C      127.11329227      -7.67949667      12.67986081
C      125.63525857      -7.67949946      12.17687837
F      128.59162421      -7.67949377       8.74731164
F      127.11319435      -7.67950192      14.05647957
C      130.80859228      -6.39954307      10.12403065
C      127.85243493      -6.39954777      10.62687901
C      129.33038772      -6.39954072      12.67992994
C      127.85235402      -6.39954351      12.17694750
F      130.80871967      -6.39953782       8.74738077
F      129.33028981      -6.39954596      14.05654870
C      133.02568774      -5.11958712      10.12409978
C      130.06953039      -5.11959181      10.62694814
C      131.54748318      -5.11958476      12.67999906
C      130.06944948      -5.11958755      12.17701662
F      133.02581513      -5.11958186       8.74744989
F      131.54738527      -5.11959001      14.05661782
C      135.24278320      -3.83963116      10.12416890
C      132.28662585      -3.83963586      10.62701726
C      133.76457864      -3.83962881      12.68006818
C      132.28654494      -3.83963160      12.17708575
F      135.24291059      -3.83962591       8.74751902
F      133.76448072      -3.83963405      14.05668695
C      137.45987865      -2.55967521      10.12423803
C      134.50372130      -2.55967990      10.62708639
C      135.98167409      -2.55967285      12.68013731
C      134.50364039      -2.55967564      12.17715487
F      137.46000604      -2.55966995       8.74758814
F      135.98157618      -2.55967810      14.05675607
C      139.67697411      -1.27971926      10.12430715
C      136.72081676      -1.27972395      10.62715551
C      138.19876955      -1.27971690      12.68020643
C      136.72073585      -1.27971969      12.17722400
F      139.67710150      -1.27971400       8.74765727
F      138.19867164      -1.27972214      14.05682520
C      141.89406957       0.00023670      10.12437628
C      138.93791222       0.00023201      10.62722464
C      140.41586501       0.00023906      12.68027556
C      138.93783131       0.00023627      12.17729312
F      141.89419696       0.00024196       8.74772639
F      140.41576709       0.00023381      14.05689432
C      144.11116502       1.28019265      10.12444540
C      141.15500768       1.28018796      10.62729376
C      142.63296046       1.28019501      12.68034468
C      141.15492676       1.28019222      12.17736225
F      144.11129241       1.28019791       8.74779551
F      142.63286255       1.28018977      14.05696345
C      146.32826048       2.56014861      10.12451453
C      143.37210313       2.56014392      10.62736288
C      144.85005592       2.56015097      12.68041381
C      143.37202222       2.56014818      12.17743137
F      146.32838787       2.56015386       8.74786464
F      144.84995801       2.56014572      14.05703257
C       75.38120247     -40.95834638      10.12230198
C       72.42504512     -40.95835107      10.62515034
C       73.90299791     -40.95834402      12.67820127
C       72.42496421     -40.95834681      12.17521883
F       75.38132986     -40.95834112       8.74565210
F       73.90289999     -40.95834926      14.05482003
C       77.59829793     -39.67839042      10.12237111
C       74.64214058     -39.67839511      10.62521947
C       76.12009336     -39.67838806      12.67827039
C       74.64205966     -39.67839085      12.17528795
F       77.59842531     -39.67838517       8.74572122
F       76.11999545     -39.67839331      14.05488915
C       79.81539338     -38.39843447      10.12244023
C       76.85923603     -38.39843916      10.62528859
C       78.33718882     -38.39843211      12.67833951
C       76.85915512     -38.39843490      12.17535708
F       79.81552077     -38.39842921       8.74579035
F       78.33709091     -38.39843735      14.05495828
C       82.03248884     -37.11847851      10.12250936
C       79.07633149     -37.11848321      10.62535772
C       80.55428428     -37.11847615      12.67840864
C       79.07625058     -37.11847894      12.17542620
F       82.03261623     -37.11847326       8.74585947
F       80.55418637     -37.11848140      14.05502740
C       84.24958430     -35.83852256      10.12257848
C       81.29342695     -35.83852725      10.62542684
C       82.77137973     -35.83852020      12.67847776
C       81.29334604     -35.83852299      12.17549533
F       84.24971168     -35.83851730       8.74592860
F       82.77128182     -35.83852544      14.05509653
C       86.46667975     -34.55856660      10.12264761
C       83.51052240     -34.55857130      10.62549597
C       84.98847519     -34.55856424      12.67854689
C       83.51044149     -34.55856703      12.17556445
F       86.46680714     -34.55856135       8.74599772
F       84.98837728     -34.55856949      14.05516565
C       88.68377521     -33.27861065      10.12271673
C       85.72761786     -33.27861534      10.62556509
C       87.20557065     -33.27860829      12.67861601
C       85.72753695     -33.27861108      12.17563358
F       88.68390260     -33.27860539       8.74606684
F       87.20547274     -33.27861354      14.05523478
C       90.90087067     -31.99865469      10.12278586
C       87.94471332     -31.99865939      10.62563421
C       89.42266611     -31.99865233      12.67868514
C       87.94463241     -31.99865512      12.17570270
F       90.90099806     -31.99864944       8.74613597
F       89.42256819     -31.99865758      14.05530390
C       93.11796612     -30.71869874      10.12285498
C       90.16180877     -30.71870343      10.62570334
C       91.63976156     -30.71869638      12.67875426
C       90.16172786     -30.71869917      12.17577183
F       93.11809351     -30.71869348       8.74620509
F       91.63966365     -30.71870163      14.05537303
C       95.33506158     -29.43874278      10.12292411
C       92.37890423     -29.43874748      10.62577246
C       93.85685702     -29.43874042      12.67882339
C       92.37882332     -29.43874321      12.17584095
F       95.33518897     -29.43873753       8.74627422
F       93.85675911     -29.43874567      14.05544215
C       97.55215704     -28.15878683      10.12299323
C       94.59599969     -28.15879152      10.62584159
C       96.07395248     -28.15878447      12.67889251
C       94.59591878     -28.15878726      12.17591007
F       97.55228443     -28.15878157       8.74634334
F       96.07385456     -28.15878972      14.05551128
C       99.76925249     -26.87883087      10.12306236
C       96.81309514     -26.87883557      10.62591071
C       98.29104793     -26.87882851      12.67896164
C       96.81301423     -26.87883131      12.17597920
F       99.76937988     -26.87882562       8.74641247
F       98.29095002     -26.87883376      14.05558040
C      101.98634795     -25.59887492      10.12313148
C       99.03019060     -25.59887961      10.62597984
C      100.50814339     -25.59887256      12.67903076
C       99.03010969     -25.59887535      12.17604832
F      101.98647534     -25.59886966       8.74648159
F      100.50804548     -25.59887781      14.05564952
C      104.20344341     -24.31891896      10.12320061
C      101.24728606     -24.31892366      10.62604896
C      102.72523885     -24.31891661      12.67909989
C      101.24720515     -24.31891940      12.17611745
F      104.20357080     -24.31891371       8.74655072
F      102.72514093     -24.31892185      14.05571865
C      106.42053886     -23.03896301      10.12326973
C      103.46438152     -23.03896770      10.62611809
C      104.94233430     -23.03896065      12.67916901
C      103.46430060     -23.03896344      12.17618657
F      106.42066625     -23.03895775       8.74661984
F      104.94223639     -23.03896590      14.05578777
C      108.63763432     -21.75900706      10.12333885
C      105.68147697     -21.75901175      10.62618721
C      107.15942976     -21.75900470      12.67923814
C      105.68139606     -21.75900749      12.17625570
F      108.63776171     -21.75900180       8.74668897
F      107.15933185     -21.75900994      14.05585690
C      110.85472978     -20.47905110      10.12340798
C      107.89857243     -20.47905579      10.62625634
C      109.37652522     -20.47904874      12.67930726
C      107.89849152     -20.47905153      12.17632482
F      110.85485717     -20.47904584       8.74675809
F      109.37642730     -20.47905399      14.05592602
C      113.07182524     -19.19909515      10.12347710
C      110.11566789     -19.19909984      10.62632546
C      111.59362067     -19.19909279      12.67937638
C      110.11558697     -19.19909558      12.17639395
F      113.07195262     -19.19908989       8.74682722
F      111.59352276     -19.19909803      14.05599515
C      115.28892069     -17.91913919      10.12354623
C      112.33276334     -17.91914388      10.62639459
C      113.81071613     -17.91913683      12.67944551
C      112.33268243     -17.91913962      12.17646307
F      115.28904808     -17.91913394       8.74689634
F      113.81061822     -17.91914208      14.05606427
C      117.50601615     -16.63918324      10.12361535
C      114.54985880     -16.63918793      10.62646371
C      116.02781159     -16.63918088      12.67951463
C      114.54977789     -16.63918367      12.17653220
F      117.50614354     -16.63917798       8.74696547
F      116.02771368     -16.63918612      14.05613340
C      119.72311161     -15.35922728      10.12368448
C      116.76695426     -15.35923197      10.62653284
C      118.24490704     -15.35922492      12.67958376
C      116.76687335     -15.35922771      12.17660132
F      119.72323899     -15.35922203       8.74703459
F      118.24480913     -15.35923017      14.05620252
C      121.94020706     -14.07927133      10.12375360
C      118.98404971     -14.07927602      10.62660196
C      120.46200250     -14.07926897      12.67965288
C      118.98396880     -14.07927176      12.17667045
F      121.94033445     -14.07926607       8.74710371
F      120.46190459     -14.07927421      14.05627165
C      124.15730252     -12.79931537      10.12382273
C      121.20114517     -12.79932007      10.62667109
C      122.67909796     -12.79931301      12.67972201
C      121.20106426     -12.79931580      12.17673957
F      124.15742991     -12.79931012       8.74717284
F      122.67900005     -12.79931826      14.05634077
C      126.37439798     -11.51935942      10.12389185
C      123.41824063     -11.51936411      10.62674021
C      124.89619342     -11.51935706      12.67979113
C      123.41815972     -11.51935985      12.17680870
F      126.37452537     -11.51935416       8.74724196
F      124.89609550     -11.51936231      14.05640990
C      128.59149343     -10.23940346      10.12396098
C      125.63533608     -10.23940816      10.62680933
C      127.11328887     -10.23940110      12.67986026
C      125.63525517     -10.23940389      12.17687782
F      128.59162082     -10.23939821       8.74731109
F      127.11319096     -10.23940635      14.05647902
C      130.80858889      -8.95944751      10.12403010
C      127.85243154      -8.95945220      10.62687846
C      129.33038433      -8.95944515      12.67992938
C      127.85235063      -8.95944794      12.17694694
F      130.80871628      -8.95944225       8.74738021
F      129.33028642      -8.95945040      14.05654815
C      133.02568435      -7.67949155      10.12409923
C      130.06952700      -7.67949625      10.62694758
C      131.54747979      -7.67948919      12.67999851
C      130.06944609      -7.67949198      12.17701607
F      133.02581174      -7.67948630       8.74744934
F      131.54738187      -7.67949444      14.05661727
C      135.24277980      -6.39953560      10.12416835
C      132.28662245      -6.39954029      10.62701671
C      133.76457524      -6.39953324      12.68006763
C      132.28654154      -6.39953603      12.17708519
F      135.24290719      -6.39953034       8.74751846
F      133.76447733      -6.39953849      14.05668639
C      137.45987526      -5.11957964      10.12423748
C      134.50371791      -5.11958434      10.62708583
C      135.98167070      -5.11957728      12.68013676
C      134.50363700      -5.11958008      12.17715432
F      137.46000265      -5.11957439       8.74758759
F      135.98157279      -5.11958253      14.05675552
C      139.67697072      -3.83962369      10.12430660
C      136.72081337      -3.83962838      10.62715496
C      138.19876616      -3.83962133      12.68020588
C      136.72073246      -3.83962412      12.17722344
F      139.67709811      -3.83961843       8.74765671
F      138.19866824      -3.83962658      14.05682464
C      141.89406617      -2.55966773      10.12437572
C      138.93790883      -2.55967243      10.62722408
C      140.41586161      -2.55966538      12.68027501
C      138.93782791      -2.55966817      12.17729257
F      141.89419356      -2.55966248       8.74772584
F      140.41576370      -2.55967062      14.05689377
C      144.11116163      -1.27971178      10.12444485
C      141.15500428      -1.27971647      10.62729321
C      142.63295707      -1.27970942      12.68034413
C      141.15492337      -1.27971221      12.17736169
F      144.11128902      -1.27970652       8.74779496
F      142.63285916      -1.27971467      14.05696289
C      146.32825709       0.00024418      10.12451397
C      143.37209974       0.00023948      10.62736233
C      144.85005253       0.00024653      12.68041326
C      143.37201883       0.00024374      12.17743082
F      146.32838448       0.00024943       8.74786409
F      144.84995461       0.00024129      14.05703202
C      148.54535255       1.28020013      10.12458310
C      145.58919520       1.28019544      10.62743146
C      147.06714798       1.28020249      12.68048238
C      145.58911428       1.28019970      12.17749994
F      148.54547993       1.28020539       8.74793321
F      147.06705007       1.28019724      14.05710114
C       77.59829453     -42.23829486      10.12237056
C       74.64213718     -42.23829955      10.62521891
C       76.12008997     -42.23829250      12.67826984
C       74.64205627     -42.23829529      12.17528740
F       77.59842192     -42.23828960       8.74572067
F       76.11999206     -42.23829774      14.05488860
C       79.81538999     -40.95833890      10.12243968
C       76.85923264     -40.95834359      10.62528804
C       78.33718543     -40.95833654      12.67833896
C       76.85915173     -40.95833933      12.17535652
F       79.81551738     -40.95833364       8.74578979
F       78.33708752     -40.95834179      14.05495772
C       82.03248545     -39.67838295      10.12250881
C       79.07632810     -39.67838764      10.62535716
C       80.55428088     -39.67838059      12.67840809
C       79.07624719     -39.67838338      12.17542565
F       82.03261283     -39.67837769       8.74585892
F       80.55418297     -39.67838583      14.05502685
C       84.24958090     -38.39842699      10.12257793
C       81.29342355     -38.39843168      10.62542629
C       82.77137634     -38.39842463      12.67847721
C       81.29334264     -38.39842742      12.17549477
F       84.24970829     -38.39842174       8.74592804
F       82.77127843     -38.39842988      14.05509597
C       86.46667636     -37.11847104      10.12264705
C       83.51051901     -37.11847573      10.62549541
C       84.98847180     -37.11846868      12.67854634
C       83.51043810     -37.11847147      12.17556390
F       86.46680375     -37.11846578       8.74599717
F       84.98837389     -37.11847392      14.05516510
C       88.68377182     -35.83851508      10.12271618
C       85.72761447     -35.83851977      10.62556454
C       87.20556726     -35.83851272      12.67861546
C       85.72753356     -35.83851551      12.17563302
F       88.68389921     -35.83850983       8.74606629
F       87.20546934     -35.83851797      14.05523422
C       90.90086727     -34.55855913      10.12278530
C       87.94470992     -34.55856382      10.62563366
C       89.42266271     -34.55855677      12.67868458
C       87.94462901     -34.55855956      12.17570215
F       90.90099466     -34.55855387       8.74613542
F       89.42256480     -34.55856201      14.05530335
C       93.11796273     -33.27860317      10.12285443
C       90.16180538     -33.27860787      10.62570279
C       91.63975817     -33.27860081      12.67875371
C       90.16172447     -33.27860360      12.17577127
F       93.11809012     -33.27859792       8.74620454
F       91.63966026     -33.27860606      14.05537247
C       95.33505819     -31.99864722      10.12292355
C       92.37890084     -31.99865191      10.62577191
C       93.85685363     -31.99864486      12.67882283
C       92.37881993     -31.99864765      12.17584040
F       95.33518558     -31.99864196       8.74627367
F       93.85675571     -31.99865010      14.05544160
C       97.55215364     -30.71869126      10.12299268
C       94.59599629     -30.71869596      10.62584104
C       96.07394908     -30.71868890      12.67889196
C       94.59591538     -30.71869169      12.17590952
F       97.55228103     -30.71868601       8.74634279
F       96.07385117     -30.71869415      14.05551072
C       99.76924910     -29.43873531      10.12306180
C       96.81309175     -29.43874000      10.62591016
C       98.29104454     -29.43873295      12.67896108
C       96.81301084     -29.43873574      12.17597865
F       99.76937649     -29.43873005       8.74641191
F       98.29094663     -29.43873820      14.05557985
C      101.98634456     -28.15877935      10.12313093
C       99.03018721     -28.15878405      10.62597929
C      100.50814000     -28.15877699      12.67903021
C       99.03010630     -28.15877978      12.17604777
F      101.98647195     -28.15877410       8.74648104
F      100.50804208     -28.15878224      14.05564897
C      104.20344001     -26.87882340      10.12320005
C      101.24728267     -26.87882809      10.62604841
C      102.72523545     -26.87882104      12.67909933
C      101.24720175     -26.87882383      12.17611690
F      104.20356740     -26.87881814       8.74655016
F      102.72513754     -26.87882629      14.05571810
C      106.42053547     -25.59886744      10.12326918
C      103.46437812     -25.59887214      10.62611753
C      104.94233091     -25.59886508      12.67916846
C      103.46429721     -25.59886788      12.17618602
F      106.42066286     -25.59886219       8.74661929
F      104.94223300     -25.59887033      14.05578722
C      108.63763093     -24.31891149      10.12333830
C      105.68147358     -24.31891618      10.62618666
C      107.15942637     -24.31890913      12.67923758
C      105.68139267     -24.31891192      12.17625514
F      108.63775832     -24.31890623       8.74668841
F      107.15932845     -24.31891438      14.05585635
C      110.85472639     -23.03895553      10.12340743
C      107.89856904     -23.03896023      10.62625578
C      109.37652182     -23.03895317      12.67930671
C      107.89848812     -23.03895597      12.17632427
F      110.85485377     -23.03895028       8.74675754
F      109.37642391     -23.03895842      14.05592547
C      113.07182184     -21.75899958      10.12347655
C      110.11566449     -21.75900427      10.62632491
C      111.59361728     -21.75899722      12.67937583
C      110.11558358     -21.75900001      12.17639339
F      113.07194923     -21.75899432       8.74682666
F      111.59351937     -21.75900247      14.05599459
C      115.28891730     -20.47904362      10.12354568
C      112.33275995     -20.47904832      10.62639403
C      113.81071274     -20.47904127      12.67944496
C      112.33267904     -20.47904406      12.17646252
F      115.28904469     -20.47903837       8.74689579
F      113.81061483     -20.47904651      14.05606372
C      117.50601276     -19.19908767      10.12361480
C      114.54985541     -19.19909236      10.62646316
C      116.02780819     -19.19908531      12.67951408
C      114.54977450     -19.19908810      12.17653164
F      117.50614014     -19.19908241       8.74696491
F      116.02771028     -19.19909056      14.05613284
C      119.72310821     -17.91913172      10.12368392
C      116.76695086     -17.91913641      10.62653228
C      118.24490365     -17.91912936      12.67958321
C      116.76686995     -17.91913215      12.17660077
F      119.72323560     -17.91912646       8.74703404
F      118.24480574     -17.91913460      14.05620197
C      121.94020367     -16.63917576      10.12375305
C      118.98404632     -16.63918045      10.62660141
C      120.46199911     -16.63917340      12.67965233
C      118.98396541     -16.63917619      12.17666989
F      121.94033106     -16.63917050       8.74710316
F      120.46190120     -16.63917865      14.05627109
C      124.15729913     -15.35921981      10.12382217
C      121.20114178     -15.35922450      10.62667053
C      122.67909457     -15.35921745      12.67972146
C      121.20106087     -15.35922024      12.17673902
F      124.15742652     -15.35921455       8.74717229
F      122.67899665     -15.35922269      14.05634022
C      126.37439458     -14.07926385      10.12389130
C      123.41823723     -14.07926854      10.62673966
C      124.89619002     -14.07926149      12.67979058
C      123.41815632     -14.07926428      12.17680814
F      126.37452197     -14.07925860       8.74724141
F      124.89609211     -14.07926674      14.05640934
C      128.59149004     -12.79930790      10.12396042
C      125.63533269     -12.79931259      10.62680878
C      127.11328548     -12.79930554      12.67985970
C      125.63525178     -12.79930833      12.17687727
F      128.59161743     -12.79930264       8.74731054
F      127.11318757     -12.79931078      14.05647847
C      130.80858550     -11.51935194      10.12402955
C      127.85242815     -11.51935664      10.62687791
C      129.33038094     -11.51934958      12.67992883
C      127.85234724     -11.51935237      12.17694639
F      130.80871289     -11.51934669       8.74737966
F      129.33028302     -11.51935483      14.05654759
C      133.02568095     -10.23939599      10.12409867
C      130.06952360     -10.23940068      10.62694703
C      131.54747639     -10.23939363      12.67999795
C      130.06944269     -10.23939642      12.17701552
F      133.02580834     -10.23939073       8.74744879
F      131.54737848     -10.23939887      14.05661672
C      135.24277641      -8.95944003      10.12416780
C      132.28661906      -8.95944473      10.62701616
C      133.76457185      -8.95943767      12.68006708
C      132.28653815      -8.95944046      12.17708464
F      135.24290380      -8.95943478       8.74751791
F      133.76447394      -8.95944292      14.05668584
C      137.45987187      -7.67948408      10.12423692
C      134.50371452      -7.67948877      10.62708528
C      135.98166731      -7.67948172      12.68013620
C      134.50363361      -7.67948451      12.17715377
F      137.45999926      -7.67947882       8.74758703
F      135.98156939      -7.67948697      14.05675497
C      139.67696732      -6.39952812      10.12430605
C      136.72080998      -6.39953282      10.62715440
C      138.19876276      -6.39952576      12.68020533
C      136.72072906      -6.39952855      12.17722289
F      139.67709471      -6.39952287       8.74765616
F      138.19866485      -6.39953101      14.05682409
C      141.89406278      -5.11957217      10.12437517
C      138.93790543      -5.11957686      10.62722353
C      140.41585822      -5.11956981      12.68027445
C      138.93782452      -5.11957260      12.17729201
F      141.89419017      -5.11956691       8.74772528
F      140.41576031      -5.11957506      14.05689322
C      144.11115824      -3.83961621      10.12444430
C      141.15500089      -3.83962091      10.62729265
C      142.63295368      -3.83961385      12.68034358
C      141.15491998      -3.83961664      12.17736114
F      144.11128563      -3.83961096       8.74779441
F      142.63285576      -3.83961910      14.05696234
C      146.32825370      -2.55966026      10.12451342
C      143.37209635      -2.55966495      10.62736178
C      144.85004913      -2.55965790      12.68041270
C      143.37201543      -2.55966069      12.17743026
F      146.32838108      -2.55965500       8.74786353
F      144.84995122      -2.55966315      14.05703146
C      148.54534915      -1.27970430      10.12458255
C      145.58919180      -1.27970900      10.62743090
C      147.06714459      -1.27970194      12.68048183
C      145.58911089      -1.27970474      12.17749939
F      148.54547654      -1.27969905       8.74793266
F      147.06704668      -1.27970719      14.05710059
C      150.76244461       0.00025165      10.12465167
C      147.80628726       0.00024696      10.62750003
C      149.28424005       0.00025401      12.68055095
C      147.80620635       0.00025122      12.17756851
F      150.76257200       0.00025691       8.74800178
F      149.28414214       0.00024876      14.05716971
