C  F 
 1.0000000000000000
    29.5917606035953185   15.5991752141022086   -0.0000103087196753
     1.2769944966337832   33.4450225033409581    0.0015980581365117
    -0.0005394476157414    0.0010096191727443   19.7813252908312869
 C   F  
 676 334
Cartesian
  0.7477058709940776 23.0475683483730407 11.0242919667734647
  0.8894614777000631 24.5393165515828748 10.5847858759632274
  0.5489473136553582 20.1130500434946100 10.3406287993712240
  7.8831707920798912  4.1227432903872669 10.6687652286267269
  9.2225470711694637  4.7643354795894499 11.1716491592439358
 11.8715121088039197  6.0997311134336520 10.6547129388610031
 13.2447954010962565  6.6519167142573954 11.1600121731508288
  1.2169831721633992 32.0216068982034798 10.7054174734663246
  1.0347702440524915 27.5075589420204878 11.1599209695887129
  1.0978664595972414 29.0009278078276971 10.6734438683548216
  2.4097818614671827 29.6810950417248733 11.1914070154388128
  2.5121564481712300 31.1476038940705706 10.6853710507362152
  3.7931563191900550 31.8514010000954926 11.2071334566758392
  3.8769790500661578 33.3121215528235695 10.6879736629738069
  5.1552951716458626 34.0344044104270793 11.1982500297477525
  2.1966169276389915 25.2300656337227593 11.1410167171380419
  2.2852665366704463 26.7186370830092628 10.6498325643925487
  3.5970776488494627 27.4093898235266415 11.1656624622892462
  3.6595427949062271 28.8955953021129801 10.6710222302126923
  4.9744348134978358 29.5801523844513916 11.1777821276789435
  5.0393557035803829 31.0656600298393499 10.6851755983076693
  6.3492538330759363 31.7607673352934938 11.1832150544623889
  6.4057897645960464 33.2446031638938067 10.6797212624949385
  7.7288283239645255 33.9331790960657358 11.1722964827064217
  7.7828665031495543 35.4104525770802567 10.6631660588703898
  9.1119954091670508 36.0852049372032937 11.1530394603594925
  1.8265417979336560 20.7638445350361174 11.0193990579043604
  2.0229011412796236 22.2586491018333383 10.5719630215884077
  3.2995287127234358 22.9501809642756278 11.1780141643476814
  3.4571770403230597 24.4414521984632174 10.6696076259543489
  4.7662122056932548 25.1475942472493230 11.1939295136191035
  4.8511149038283863 26.6203424010515057 10.6656095750617137
  6.1615112667562331 27.3002864011646551 11.1733900742718930
  6.2270649755830245 28.7887867837460476 10.6731088768932718
  7.5299554138130320 29.4795486177130677 11.1883994537607467
  7.6007271667394143 30.9679442076568243 10.6819287647273260
  8.9091492770541425 31.6620908344646530 11.1913197014490180
  8.9802191662988449 33.1389209547386585 10.6632626496054161
 10.3108599502157627 33.8243235051615017 11.1321800982672823
 10.3629171811909941 35.2928586709268615 10.6081799623402695
 11.7100533537512401 35.9266042409222521 11.0599474801673789
 11.7462079582279042 37.4266195076753050 10.5967733451986152
 13.0931032462506121 38.0307898461470728 11.0683012758904145
  1.1509203892813709 16.3188767169926692 10.9123884203813297
  1.5560390162210440 17.7864454122497051 10.4256012399262428
  2.7694474453559508 18.4023916616315759 11.2044278031225932
  3.1054620120322984 19.9271566336485613 10.6838226762504789
  4.2857413898903909 20.5975929904670814 11.4175959155448972
  4.5650716194574388 22.1293676479266352 10.8061991954263128
  5.7715228957073368 22.8359328644704362 11.4341428315556470
  6.0150226114713057 24.3226606467226141 10.7392671347611959
  7.3367908368627646 24.9860333978910703 11.1604603089386725
  7.4071784790034849 26.4967658304143505 10.6657722187706590
  8.7010378048348880 27.1745793617077354 11.1812391842446175
  8.7791557232228872 28.6804526393299994 10.6951364860498739
 10.0686267370835605 29.3680770743266990 11.2349390111360883
 10.1595948122569411 30.8564172102712853 10.7173288010778958
 11.4607946141287229 31.5416971949154181 11.2409260477244040
 11.5497032406893130 32.9972793518258385 10.6149359075241652
 12.8977201706200262 33.5713341586543663 11.0341940834277636
 12.9437076584630528 35.0966238760942915 10.4625528376875963
 14.2675062874679472 35.6526635637282325 10.9139298442093029
 14.3231501379916342 37.2221623160417892 10.4453348938654447
 15.6423396601927092 37.7269437325593699 10.9792221131382401
 15.7561001839223938 39.2990337531544469 10.6214380603087069
 17.1372851153732704 39.6301740370245525 11.3564113567332718
 17.5405558861672368 40.9542304545942883 10.8142578304750874
 18.8510038449958728 41.6090064267660082 11.3294859676504007
  0.5774023362711617 11.8723691664012030 11.0996719005954336
  0.6613636170337892 13.3388736006242592 10.5511436746671858
  2.0705755598286713 13.9882290731299328 10.9209008827365626
  2.1416186319453030 15.3869152419040329 10.3088703479213724
  3.7151640743280954 15.9061272703826919 10.3287657528122061
  3.9445308018039085 17.3421653687180886 11.1563040847932644
  5.2318728589479324 18.0278457812246238 10.6764438468366052
  5.4618706965331665 19.5412306373446754 11.4054837084206540
  6.6705723772331806 20.2419335599857213 10.7840624175759245
  6.9536482853852259 21.8123350439241008 11.4090757328210124
  8.1174004905531074 22.4522838058623648 10.6217514911530539
  8.5185174601859881 24.1765033616175486 10.5477517137593058
  9.8215119976530687 24.8090347000462295 11.0916912655778042
  9.9354089450703285 26.3647864564583578 10.6723473381531928
 11.2077638385871321 27.0358118846227100 11.2502592788586142
 11.3184698720379959 28.5503740123338652 10.7835338050729259
 12.5881057484721754 29.2009818316671534 11.3905663054048958
 12.6976838390409483 30.6657020817138566 10.8539986035266853
 14.0514537344814698 31.1361075852557505 11.3896035484305482
 14.1506797094264716 32.4930563981856153 10.6900046172222627
 15.4321075890346773 33.1536230979944051 11.1478223381468524
 15.4840625568276913 34.5734083107517165 10.5092169541764182
 16.7692515941124896 35.2124267527062287 11.0868010894919138
 16.8670391357742204 36.6785552698461359 10.5804420517919873
 18.1841477269311440 37.2477147516718858 11.2630699923124347
 18.2923708076069538 38.7116746105942084 10.8922813958198788
 19.7327464200667819 39.3301282848199136 11.5091308862135815
 20.1053318770202409 40.7279706021722774 10.9587340013228172
 21.4659439964729017 41.4103434880195991 11.4195889990665940
 21.5786111465434658 42.8132010813958530 10.7732359336810664
 22.9047462909142290 43.5007218656433778 11.2424850688776363
  0.2971302353661643  7.4185914727100988 11.1653740790370204
  0.3647071380345324  8.8975500003669712 10.6474666338910318
  1.6985342097753775  9.5990623434879065 11.1197708050069579
  1.7889576408534029 11.0634281298003341 10.5669117986348535
  3.1774916631084951 11.7539667615075718 10.9816326142836722
  3.2382811234607507 13.1482676850075659 10.3414814430453106
  4.9105434494460489 13.6331640989795222 10.3332522084476626
  4.9358420454577470 15.0594918933471202 10.9050595774274139
  6.3558443385032515 15.7431534623636633 10.5252107321464941
  6.4703538194976105 17.2041533641536546 11.1015623287639240
  7.7935124918341820 17.9161918779077958 10.6219978501604011
  7.9203079606127602 19.4173546380314654 11.1669034745310096
  9.2002837461424303 20.1272559575639036 10.6215131882260092
  9.3572996527526886 21.6857996727888320 11.0852059044496691
 10.6227134002183963 22.3406778617129262 10.4788820689041220
 11.0332064042830282 24.0576332980566328 10.5082329345464824
 12.2834832018107871 24.6628491330721928 11.1766096379132787
 12.4560751365024860 26.2312456664996319 10.7927879534278279
 13.7014076748009241 26.8587028997501100 11.4507291511526610
 13.8500262016062514 28.3452013753947725 10.9842543646317079
 15.2403214528794990 28.7472614513866382 11.5360168667929486
 15.3336080920539910 30.1406435805514796 10.9584284505357825
 16.6537844310289564 30.7862549278686686 11.3449515613728700
 16.6939874757199718 32.2194087273670675 10.7436190959892812
 18.0010502542174038 32.8795818193040645 11.2251220881062910
 18.0607129508342936 34.3407717597160485 10.6935848759967733
 19.3739079339734417 34.9802950529206385 11.2502613652234125
 19.4602996326648565 36.4552476281436242 10.8032156209064603
 20.8165128582099648 37.0674090294621337 11.3947569290119315
 20.9247292641870253 38.5412292756000454 11.0121328409155321
 22.3795806206365597 39.1729169324536102 11.5422530444701597
 22.7067615752749106 40.5740611844246217 10.9804534511247915
 24.0865113430631439 41.2473358006873383 11.3828819887139900
 24.1640960326446752 42.6708905013029280 10.7782253668140271
 25.4985728653458814 43.3485000037803729 11.2289103767699210
 25.5523563412942920 44.8110728078115130 10.6919051256133812
 26.8680275330997844 45.4944601542179612 11.1875196236556889
  0.1125011612457983  2.9787910865584579 11.2082786566020758
  0.1696024230698487  4.4522604297143511 10.6843191164938833
  1.4840267603306689  5.1424781347684014 11.1761907491752250
  1.5431907561326825  6.6235087817481162 10.6618629447164217
  2.8559264986104553  7.3185923490434828 11.1626779172124824
  2.9323227786240880  8.7964727118791455 10.6338159244650310
  4.2625917611658002  9.5010516408528982 11.1314135948994828
  4.3877362010886642 10.9128611969236786 10.4873510461740711
  6.0705994042657423 11.4188900325652849 10.5768843690667449
  6.1007680167182974 12.8807252568130259 11.0056493599222929
  7.5440276038189680 13.5113787500753855 10.5762769850283167
  7.6060695470474728 14.9719288452997112 11.0674996646307093
  8.9687886240752945 15.6533374559573542 10.5885848780702823
  9.0445482418484442 17.1264518638275511 11.1061576395657706
 10.3580105005067509 17.8263249050976249 10.5996968138475527
 10.4375081739061066 19.3280653504227473 11.1106661743503974
 11.7343525778292044 20.0288678515664351 10.6016528525374838
 11.8281934636794457 21.5741453479893011 11.0719496899671075
 13.1544632736326186 22.2320289948664858 10.5841636766852965
 13.5340013897713316 23.8950582318286564 10.7083152219909525
 14.6770113641614000 24.4397405151375828 11.5690436204634750
 14.9361976993803331 26.0172470291052385 11.0312600101689036
 16.2976351139944882 26.3506883080421481 11.5532936078822530
 16.5134532012251505 27.7709739963207660 10.9932747178411407
 17.8401557331525566 28.4141298008274887 11.3261208633501660
 17.8803572261861810 29.8900067345686296 10.8057965792190611
 19.2018128587785419 30.5484666848192248 11.2466706991983880
 19.2568717949990464 32.0332088053919932 10.7396782693596613
 20.5726290179673938 32.6978189037766640 11.2422622165896939
 20.6421441456283929 34.1784644973513494 10.7596441917506240
 21.9817336257986327 34.8289213053443518 11.2799741243663494
 22.0612120636813067 36.3089488224289454 10.8452583824210773
 23.4566494640506384 36.9331305843269746 11.3510703359426497
 23.5409563457494500 38.4023544578960312 10.9542601781100899
 25.0461753868174171 39.0142744924161420 11.3756055999103509
 25.3052650783871478 40.4253358824207041 10.8432091234512065
 26.6859049381870435 41.0601104101031140 11.2247105027204235
 26.7435057885889407 42.5321393974928199 10.7069543101866707
 28.0681097251534339 43.2119073300228251 11.1811706870317700
 28.1266014599325516 44.6977155964871571 10.6825861447399006
 29.4373913717348827 45.3824781457241428 11.1956995404076007
 29.4490446945185340 46.8508751429917538 10.6871543002943241
 -0.0045451125323179 -0.0031708687407939 11.2737501669501601
  1.2528423332589451  0.6599731360667138 10.7052108596411557
  1.3614642566681716  2.2191434881143235 10.6873232980270139
  2.6796760257631789  2.8628973997798082 11.1967097609567041
  2.7341271015449498  4.3400011541204613 10.6774615449252401
  4.0438068022780200  5.0299599538149371 11.1812774855389456
  4.1024104441394149  6.5123712756971699 10.6762783434973691
  5.4058035712433501  7.1804743372534752 11.2200346607748056
  5.5021935254380505  8.6732951164403911 10.7493166068439638
  6.8860726555745631  9.2194221387404216 11.4647943920675139
  7.1888858163104628 10.7522349219171911 11.4118388276882499
  8.7077588407019579 11.2810726115370574 10.8104016547038668
  8.7928936365288397 12.7760452485543254 11.1603937151140542
 10.1735458796439904 13.4071650604778867 10.6249955721482365
 10.2382415581102215 14.8788813962955864 11.0973827581124542
 11.5630222645695788 15.5444436059483984 10.5700199574908726
 11.6161081313479251 17.0203511086571879 11.0873138297026035
 12.9177794991629913 17.7095024562534107 10.5871088199991892
 12.9604705370043565 19.1931785138804081 11.1261771732351367
 14.2695212093384427 19.8748681376369518 10.6798939654871621
 14.3165208735360281 21.3565017961988630 11.2261370351947480
 15.6788297877394154 22.0183138559283726 10.9425172417336221
 15.8494712819315922 23.3333590130803685 11.7592186433364461
 17.3069802628002343 23.9056363816704049 11.6568687336002359
 17.2874572452228001 25.2737524588894544 10.9060008863652804
 18.7248164030794122 25.9763631765271370 11.1475338167148159
 18.9965256678981227 27.5254207105524884 10.6650562783907574
 20.3233446671672802 28.1772954254925949 11.1306792248307502
 20.4199537944605964 29.7158917078262590 10.6998144539929232
 21.7254375730102822 30.3902485353883591 11.2107544392780660
 21.8170691460229058 31.8934084960305810 10.7306124958988871
 23.1398431700456158 32.5731910354946521 11.2337782152919239
 23.2289690545950087 34.0529060793771023 10.7416065203150701
 24.5984217541315076 34.7196943243936786 11.2019161790483768
 24.6689210982951934 36.1871051624734719 10.7275854228985104
 26.1107886676394720 36.8038874210955171 11.1136351350490870
 26.1685769749580963 38.2543979268202250 10.6639754819907875
 27.7229836548770798 38.7990528703960180 10.9964072277475911
 27.9022334817239503 40.2589746765542458 10.5887719979373252
 29.2370218458764519 40.9181492072057225 11.1102327238694567
 29.3125691098216734 42.4171128669190054 10.6485488824696830
  3.9265310799546755  2.0658681409668618 10.6803871708315015
  5.2466225426471667  2.7532807433953446 11.1765475657698232
  5.3021094162217635  4.2358129256824411 10.6796296767610688
  6.6204330553917732  4.9033419619727345 11.1986458330257346
  6.6788503177065230  6.3941879890955358 10.7292445337947093
  8.0248995858127170  7.0184160628099113 11.2756118296969010
  8.1134140037837259  8.5200509752575488 10.8841043492604204
  9.5553481641780333  9.0726116357369655 11.5363143113648245
  9.9046255819901692 10.6126705729448059 11.4806446339119042
 11.3541275163628139 11.1548405206270065 10.7583678531720732
 11.4512127224610900 12.6447474270119269 11.1302524110155794
 12.7880093960522956 13.2544612879510062 10.5324779275747265
 12.8504330926487302 14.7289352062932846 11.0323259995130023
 14.1413809509243347 15.4001895707590286 10.4880059415810098
 14.1790578343097504 16.8569339719139606 11.0566854965732855
 15.4794072548437711 17.5404940191746270 10.5896567027712223
 15.5023683985887182 18.9745446359634542 11.1998116305222801
 16.8523400222204565 19.6457323138553477 10.8611927466474434
 16.8667459386596690 20.9860534842263213 11.5747162986656917
 18.3728490842433381 21.4962045997993769 11.6250953113439444
 18.3856562217618027 22.8933982442329196 10.9839936048429347
 19.7640337587851533 23.5864057944034151 11.2649344531888946
 19.8030367317313747 25.0437436979763817 10.6109271735064610
 21.2061464230615897 25.7824374324555166 11.0016779190269709
 21.5144568171986386 27.3666987055595001 10.5458699445929831
 22.7856078474131678 28.0400090238751929 11.1384737124118605
 22.9508676413326427 29.5892468716939980 10.7056999268128799
 24.2324831001816996 30.2719182299440845 11.2671823045178385
 24.3737026839616213 31.7763018516214899 10.7377285697039202
 25.6975411945505847 32.4661363639577942 11.2154874178440629
 25.8179712398876262 33.9341223488802370 10.6404840442555138
 27.2336490373780258 34.5899649163243197 10.9839724261170986
 27.3043414861771510 36.0539336361646221 10.4451262218899750
 28.8235369593819257 36.5594792380885636 10.8359603613448154
 29.0171474444967430 37.9962233698733201 10.4084509664124294
  9.2781879733702581  6.2601861861889345 10.7293482924261792
 10.6473389770681202  6.8682832563354861 11.2512158205862391
 10.7470017128400812  8.3773920826847021 10.8768882855145375
 12.2301415662539092  8.9005919886307154 11.4395193132229220
 12.5842698856162123 10.4259412887084491 11.3026853997844423
 13.9630124958866837 10.8974118471174535 10.4456577512873814
 14.0967553998621220 12.4019929919280543 10.9365066591453086
 15.3416123839327856 13.0624416048350014 10.3035751523615602
 15.4258820329263973 14.5163736285538914 10.8935273393422438
 16.6788436058902612 15.2075261441360681 10.3437727402039172
 16.7419015940293257 16.6024894305637822 11.0199444183581132
 18.0311130954273651 17.3043699446983297 10.5994305350421048
 18.0632671319358167 18.5964688157188398 11.4449411143879161
 19.5427123845761805 19.1144894992716026 11.5037746574761961
 19.5391684003825219 20.5378045528848823 10.9403552287933117
 20.8903454958809327 21.2218574122649457 11.3051514268264857
 20.9253008795375663 22.6923559368309746 10.7369706518842385
 22.2567282060443397 23.4123856195189077 11.1466105849378945
 22.3318883442993261 24.8955448280825316 10.5286609927209351
 23.6901045056314814 25.6283927236313964 11.0481519343851744
 23.9905665147527181 27.2569325910047198 10.6612738103454632
 25.2342205641589032 27.8656329860249059 11.3144521261125970
 25.4488303437432251 29.4661321824233013 10.8349328672573364
 26.7268197248590837 30.1017789752279903 11.3497695500055187
 26.9014564201917494 31.6516388548842080 10.7459897901393990
 28.2360600150313346 32.2861278903064459 11.1273386717950604
 28.4458680494491283 33.7595369640933711 10.4108878299109193
 29.8844372717211684 34.2829195128329189 10.8215901389981966
 13.3776501428543959  8.1504697062221485 10.7385712694826285
 14.8930088203244164  8.5254692586158463 11.1772246703076412
 15.1971829555925204  9.8029645630549620 10.4912927804832545
 16.4606480582155505 10.4593665131367217 11.0232539011798298
 16.5882362734081390 11.8538512863605714 10.3514986491461993
 17.8243125821386279 12.5357055011544531 10.9376441841307059
 17.9409788112978923 13.9799817335105878 10.3492853277785564
 19.1794804173266940 14.6337268399386140 10.9894885449675410
 19.3002830653779540 16.1097551763517011 10.5002639275332879
 20.5928071372523185 16.7058088956139663 11.1475582008997023
 20.6956546351548916 18.1973984042395251 10.7764165810400439
 22.0411667743285129 18.8642646537453196 11.2411151793791415
 22.0860292943273961 20.3633139686742055 10.7497648749957939
 23.4065176642519184 21.0643976006056199 11.2084141055010438
 23.4571964695421862 22.5520700040637792 10.6635960743889431
 24.7631568291197404 23.2502988717349446 11.1560774435193171
 24.8479032640554856 24.7384595112548418 10.6186427382835156
 26.1638130218346667 25.4069016215709986 11.2088848274058730
 26.3024014738931271 26.9158783540311397 10.7826872082288681
 27.6405176209367482 27.5837208404679082 11.2686429795060263
 27.7496562493333805 29.1021006327274279 10.7941583165463069
 29.1279248057354287 29.7950479680188067 11.1501816983358761
 29.2262249438018316 31.2849650875069862 10.5699331611140579
 17.7247160915149422  9.5396098006335279 10.6692152057898308
 19.0298435016846135 10.2228226079053837 11.1691142476667409
 19.1121353588471798 11.6516404063429349 10.5698757602820290
 20.4093888525096325 12.3271328201748513 11.1075013786520209
 20.4796640149187077 13.7847531608962974 10.5730721372644592
 21.7917112099560164 14.4416282650388084 11.1262096228860798
 21.8677068027590877 15.9115229276655654 10.6439836682524760
 23.1875168474748889 16.5858673463065571 11.1737936615179674
 23.2664892999390034 18.0698234165251215 10.6917503321056824
 24.5836891284044583 18.7609308702314905 11.1934817865009144
 24.6383949323327229 20.2517991205339349 10.6912875995350767
 25.9484011743758991 20.9487569010561856 11.1872812349154849
 26.0066702235806098 22.4337094762921474 10.6725159261905791
 27.3230095837897942 23.1213113836957547 11.1800417362959834
 27.3921401680948904 24.6070906335810378 10.6833708649805441
 28.7268982754308162 25.2912921559367518 11.1725492392091397
 28.8127653484256321 26.7770935148556717 10.6737506855609308
 21.6935418509693569 11.4985639809885622 10.6695716800408391
 23.0091975346915305 12.1766454296316642 11.1755414877979824
 23.0684320612469058 13.6409472742230502 10.6515675762835098
 24.3820312368101035 14.3223820362100245 11.1715968263002274
 24.4507161356920832 15.7999765669338981 10.6750859975236043
 25.7611810317321890 16.4884478490455813 11.1991806485706835
 25.8332651753728300 17.9669437225467767 10.6880067142129498
 27.1371831234664604 18.6645384088427768 11.2032198419797293
 27.1965996506870056 20.1452230508002295 10.6855607508004624
 28.5089861624791965 20.8434315432729456 11.1814362718717266
 28.5684257321058794 22.3249142518015091 10.6702725722864233
 25.6431775738071508 13.5254083291076288 10.6838195749445273
 26.9482326208048946 14.2091891918372948 11.2068287356048888
 26.9794902452239960 15.6696989398634443 10.6878784186063100
 28.3845014295555806 16.3552021597801875 10.7066987336366655
 28.3985949274209020 17.9188428034786078 10.6897085129621257
  0.3237512822122187 11.8153779660541378  8.5326604666575676
  0.3653668497234420 13.2999238399044497  8.9901313426875351
  0.3082505991327843  8.8823352842144967  9.0877841110005235
 17.8862804807840483  9.2331198282344022  9.1120976481183114
 19.1874641780270601  9.9238132299079496  8.6121976983355886
 21.7452154968455211 11.4005376305087367  9.1117384471075926
  1.2183081755445326 32.0221964482431645  9.0762147167663088
  1.0553102522835760 27.5269614379288434  8.5894330446318978
  1.1063685931741232 29.0065726678382454  9.0949076638748885
  2.4187343119760922 29.6881411843266996  8.5796936247064686
  2.5163228873378114 31.1502282648874278  9.0932044803346876
  3.7979369922960555 31.8549793032310369  8.5746437440921337
  3.8769801319851824 33.3146799408961130  9.0955986400521542
  5.1530028708356461 34.0384661083128819  8.5862112733506191
  0.9985817434926724 23.0891997497272641  8.4777647105476444
  0.9659253193877376 24.5608283028506449  9.0331508572676658
  2.2905333133449082 25.2540963687318119  8.5745007053359181
  2.3162353698556086 26.7296226310452099  9.0916267732577083
  3.6315160591535629 27.4165740872290975  8.5956322233356097
  3.6739196311595630 28.9004435130729540  9.0973522578943857
  4.9915772592181638 29.5886520002580831  8.6014758206068898
  5.0458611456489608 31.0694487543454549  9.0986028295405639
  6.3580776878582625 31.7638540141958075  8.6067302818066800
  6.4024279299773008 33.2486953098780873  9.1054590351234044
  7.7117497201952947 33.9393324027587724  8.6016421820933093
  7.7676074377231732 35.4262336588120093  9.1032895330468602
  9.0633085817269787 36.1366770640002173  8.5842724660866629
  1.1878606254418100 18.6162420831519597  8.1260485860734271
  0.9622816993120837 20.0781868219689024  8.7989234176554074
  2.3129392969754559 20.8237789483080995  8.5179816186251003
  2.2315405193573787 22.2870769732412128  9.0459450437764186
  3.5779610839141927 22.9786638215693948  8.6363041778754059
  3.5465461726033793 24.4552411160565413  9.1193182812146443
  4.8605892663009209 25.1381363213044580  8.6268359993795496
  4.8895741233338743 26.6255179501046655  9.1103970734621935
  6.2007147031072254 27.3229813149189695  8.6028703480334059
  6.2474340248292908 28.8005223593713318  9.1126390619463571
  7.5652378678362187 29.4984225788771717  8.6175469448191198
  7.6134057671354514 30.9757524724197104  9.1210576282987059
  8.9286825814411799 31.6660149440945915  8.6202417402597469
  8.9679002430563770 33.1499883455662001  9.1066408660810456
 10.2556378971962285 33.8477892462867871  8.5628836460926880
 10.3263126500574351 35.3424128707370429  9.0536733049466793
 11.6019566220763561 36.1001996341271010  8.5073050956792375
 11.6846136127362588 37.5626676367038925  9.0535681675264286
 12.9600035653941141 38.3486294835520667  8.5316997180459548
  1.5867610230951965 13.9727914739716113  8.3321892856304629
  1.5903007759533714 15.4670278070600205  8.7516579952039617
  2.6347325661319752 16.4018306103377611  8.2296235593673259
  2.3055657661988511 17.8270282073188611  8.8769160507351472
  3.6974761385695429 18.6158553166262699  8.6353821347710351
  3.5373274581451031 20.0324324985276014  9.1719884581693112
  4.9396533363262245 20.7726126163789004  8.7812367353425156
  4.8440845873568081 22.2025567826419881  9.2542533028045906
  6.2162185730768220 22.9090017669853800  8.7347614099899502
  6.1362561655020658 24.3671119903172944  9.1642702306547612
  7.4313465270165500 25.0750478823463148  8.5740272319507156
  7.4655925202854503 26.5404191216347982  9.0995407545806710
  8.7843359169085442 27.2550000322042330  8.6103614559555961
  8.8236104273037768 28.7184328710056676  9.1354539280055498
 10.1561096638820025 29.4224635038158056  8.6631488280101241
 10.1911493594189739 30.8939107501332053  9.1491032665519594
 11.5241679716927816 31.5932729517209765  8.6515046682790100
 11.5417291374424718 33.0837377576838776  9.0336012183776866
 12.7743145272957417 33.9168692741129547  8.3181225216180810
 12.8908693675634911 35.3246698005647062  8.8988120962368029
 14.1615689820950870 36.2020629070651552  8.2466011890954061
 14.2613822946365563 37.5780739182866839  8.9060267650190461
 15.5311433250993840 38.5060544206232791  8.3433947782520210
 15.5607144275701650 39.8766694273711906  9.0443424119167872
 16.7264122656596470 40.9149778192184783  8.6056880770809077
  0.2616195291607756  7.4001471097948217  8.5945215947570954
  1.6042267468032547  9.5576187146719427  8.5479806852113249
  1.6358696430494744 11.0508518812532088  8.9993854448044335
  2.8900973180994116 11.7306883799618387  8.3923520652227328
  2.8971499493759545 13.2554027922473008  8.7986635638953636
  4.0145015366589059 14.1752384606040778  8.2469001881408914
  3.9284677157202479 15.7772997185274058  8.7896419235346670
  5.2087951290354919 16.5084290553873991  8.4567948698144768
  5.1290353731134184 17.9646687850764408  9.1178590797265873
  6.4166218921259182 18.6909672145809864  8.6522352225139532
  6.4209395880398423 20.1317298740393724  9.2370440863210526
  7.6947537127452552 20.7999874974772574  8.6444394319238729
  7.7296009269460786 22.2366225149963412  9.1216389021129753
  8.9345716512429032 22.9187046249699549  8.4684597333297340
  8.7546127877505828 24.3366818650595782  9.0002243418241594
 10.0617570792803335 25.0632775677341861  8.5142676490269178
 10.0586895774680674 26.4862334532139307  9.1091595357030126
 11.3981172546844167 27.2128758194307743  8.6832476902444853
 11.4153531076445791 28.6695690741061071  9.2160073641608733
 12.7697130158873016 29.4249357262647386  8.8012855929557769
 12.7596714440750691 30.8987233611117418  9.2955667429640130
 14.1281275018720294 32.0011849570912261  9.2060323570586586
 14.2100475808393156 33.3005239961215480  8.3710774803145291
 15.5046530005198271 34.2547999271465073  8.9725136731356745
 15.6295367617359382 35.6199573211931693  8.3022702334537755
 16.8959409386900106 36.5094661392022104  9.0245460680277301
 16.9897164452605942 37.9362632485295990  8.4802280601893649
 18.1578062716431496 38.8073449617696369  9.3372548214414675
 17.9522701260206858 40.4440326049538115  9.2916194338986813
 19.2077911394894230 41.1155038528652383  8.7596574356966102
  0.1068460134752441  2.9768681894789459  8.5757889476537841
  0.1627995940322783  4.4490337536665496  9.0977463523626465
  1.4764924913602306  5.1369416957874563  8.5997059822176016
  1.5295833169541633  6.6174604685457457  9.1009918174450828
  2.8416495374301900  7.3046935158259725  8.5915999678020292
  2.8835575040973498  8.7916259871877820  9.0655904179195144
  4.1842272246885086  9.4779108482006276  8.5419922648318511
  4.1604572789504788 10.9933968131000519  8.9289192863839002
  5.3135558432762195 11.8444767347194642  8.3933134681409722
  5.2167993055391539 13.4648183375472641  8.8244881530592547
  6.4954647080948140 14.1891757535990504  8.4379641368467180
  6.4491557458076763 15.7075951848496764  8.9771187078287742
  7.7391445175698692 16.4257474399824872  8.5362436780992148
  7.7406031316693733 17.9012293167320422  9.0830994984479023
  9.0346817526472147 18.5972211444490192  8.5721586075586416
  9.0663082852667749 20.0608750387663335  9.0772126821247046
 10.3537588978035693 20.7324763215164580  8.5157294094417857
 10.3763055278180740 22.1913401924306228  8.9479784151389286
 11.6229104272322203 22.8865229185022265  8.4331408529123255
 11.3761394096249440 24.2953010094478259  8.9887518160440756
 12.7266857035378553 25.0408372286598677  8.6327274836304220
 12.6554734565310927 26.4534413939429776  9.2317754488700388
 13.9875409030109932 27.2491401065199206  8.8620172858230202
 13.9544050614925919 28.6871852695413594  9.4414363302808919
 15.2994358517147706 29.7928425445536931  9.4496645137403927
 15.3512332998958367 31.2000081972818393  8.7772669295795644
 16.6871114269633019 32.0343657497652856  9.2066383362833975
 16.7861589773422857 33.4802463673473980  8.6225211366169709
 18.0870431829357194 34.2626874944546742  9.1579183454015620
 18.1800205657263874 35.7476346089404302  8.6526610290298862
 19.4384619617607370 36.5059898505063956  9.2504346083645981
 19.4747073754292082 38.0674648549753627  8.8464054082352170
 20.7230524041326660 38.7212974557658072  9.4793360464841374
 20.4303821092265956 40.4327604984200164  9.4314122173897346
 21.6914248786175428 41.0672523622486310  8.8452658125369172
 21.6897789220336961 42.6293202917746470  9.2130337883541351
 22.9801435798984350 43.3178801718804039  8.6754072686062980
 -0.0054074983456916 -0.0015367439476254  8.5075750964980603
  1.2522420977841546  0.6611107109835753  9.0761135276616347
  1.3593520298683279  2.2205878541488402  9.0949482758418849
  2.6776189319146093  2.8670830860288885  8.5846710044777552
  2.7326498344631154  4.3450867421324366  9.1031993168975411
  4.0483796642810121  5.0475267418492669  8.6106231773832782
  4.1002399496722024  6.5287883691040580  9.1196565564378567
  5.4176475884955080  7.2392936821903291  8.6507381852354293
  5.4353679505060279  8.7287302103998883  9.1679819381991408
  6.6707294390929270  9.5164927396372523  8.7487228622877566
  6.4891513473491651 11.1595448350239455  9.0929119552338324
  7.7582590085099445 11.8434824830049426  8.6350933457508869
  7.7005783733592441 13.4124855493497019  9.0392961683887130
  8.9838472764209634 14.1177951775791950  8.5577922738663705
  8.9952149473250032 15.6321617863082913  9.0432356511686631
 10.2870576356760495 16.3421372845685440  8.5406507955316382
 10.3266142264187266 17.8234012955563337  9.0523000689310660
 11.6349397507022587 18.5305920899785583  8.5491334329493291
 11.6747225830615129 19.9988766120918413  9.0451826348606694
 12.9919428309626248 20.7012653904330577  8.5674228666778163
 13.0002770695649250 22.1547952318207670  9.0369200720993170
 14.2779189127421500 22.8973406633840959  8.6555702804415713
 14.0114608202292477 24.2800025562047317  9.2129755390176182
 15.3907086115253051 25.1733741136266786  8.8705295797135868
 15.1816450934361615 26.5173711274355419  9.4740473798880078
 16.4992034827290794 27.5221926242472215  9.4541509678368101
 16.4904948811412879 29.0077126828268810  8.8778567210066228
 17.8569638048170169 29.7929279853470348  9.2577045955569570
 17.9271681816762083 31.2602116418340579  8.7154152030678116
 19.2594082995003539 31.9994397157780952  9.1943290507806470
 19.3378120286666011 33.4844128864114907  8.6855307011758978
 20.6355398681226276 34.2012952989724042  9.2128925881962935
 20.6902220097482328 35.7242825022178820  8.7505860786213798
 21.9735274954624273 36.4100352282206785  9.2949052397781866
 21.9702096233422388 37.9692216439852928  8.8893833957006123
 23.2484660632122484 38.6123903205909471  9.4391371130827668
 22.9489233647850028 40.3473614226300299  9.4336241902005220
 24.1881457519397429 40.9997383553672847  8.7934201099100981
 24.2224362576956480 42.5521745838536276  9.2098360527689547
 25.5058008202139312 43.2634601411018451  8.6566976630671615
 25.5666757458401008 44.7692492587745434  9.1313392437477088
 26.8711797905717980 45.4679368696730322  8.6113090817475122
  3.9230192852925079  2.0725289998158551  9.1009353545888292
  5.2361239598786895  2.7731949395441382  8.6047740422839141
  5.2977114242999335  4.2573193777520819  9.1197531471533715
  6.6054779787280253  4.9725956428141824  8.6298788270005780
  6.6586505717974278  6.4523899041358135  9.1747378706854423
  7.9427610139687888  7.2056951934797491  8.7229694361661139
  7.9551267192539603  8.6925098952922806  9.3203636445454645
  9.1619396848288321  9.4704717289421136  8.8689857563976755
  8.9589840870231114 11.0840424180538495  9.2736982933130054
 10.2124391090741256 11.7832597782362694  8.6961132735872670
 10.2230879948150033 13.3413168441674816  9.0893290334654537
 11.4927853909046558 14.0633546734195285  8.5326516444343543
 11.5479173252453666 15.5627933185724316  9.0232683568984768
 12.8415504536882050 16.3004290069938342  8.5029375069564583
 12.9061135322018767 17.7679534349731441  9.0413046540335191
 14.2300959903209954 18.5209984846002236  8.5809940570175680
 14.2711294600410792 19.9710815940670727  9.1424257526832697
 15.6122027513545252 20.7684490546407510  8.7989364104931926
 15.6120863273810606 22.2378319140304050  9.3720205844611932
 16.8568117639229484 23.1289371375605910  8.9613173406233848
 16.8304252328065225 24.6783027517782223  9.3573161174954418
 18.0242824767141201 25.3313367271107488  8.5784887156940322
 17.8135902728164517 26.8999378600722920  8.6266120980602796
 19.1067600498231336 27.5745636754450345  9.1064714370556210
 19.1270404328138923 29.0618069712093927  8.6813525166030363
 20.4621960036297068 29.7510879060915840  9.1609160691333766
 20.5175826798664396 31.2295031431049601  8.6767558245968317
 21.8372220497895988 31.9176588241233219  9.1832157330245749
 21.8832059542306183 33.4110738524223123  8.6955982628578887
 23.1873367006832076 34.0955604001313120  9.1958023647887135
 23.1966759743346351 35.6179297447601684  8.7262252455741294
 24.4954466939685105 36.3044852175689954  9.1932531339560200
 24.4349857800374259 37.8761367954564605  8.7629649996408077
 25.7425774983744908 38.5431504462849261  9.1834779783646798
 25.4741780700376594 40.2653173003955871  9.2826442372731091
 26.6963308094427560 40.9948651467781531  8.6353490879396091
 26.7614527057062475 42.4955379841164671  9.1389231538225708
 28.0636166906225704 43.2033564196313549  8.6091122472163768
 28.1290531159937593 44.6896320652272152  9.1078194484149151
 29.4375913534088625 45.3817575415360039  8.5837238850441135
 29.4505519623796594 46.8495652868336947  9.0950256861143384
  7.8558558582222391  4.1745589107092052  9.1125545481991139
  9.1420549411345444  4.9170280032350071  8.6096697028636129
  9.2007496001039417  6.3878822009681464  9.1861431202741706
 10.4603234535941745  7.1577013784714358  8.7146142815258916
 10.4882673960676200  8.6294736164408921  9.3375802252850839
 11.6501861447330572  9.4325982471824616  8.8036921416401839
 11.4772982096001837 11.0354448488225163  9.2024718365652411
 12.6911548092779078 11.8004732851015728  8.5198430143261046
 12.7584849100274340 13.3011514372606321  8.9796969177113510
 14.0299170273658085 14.0741424996053599  8.3881546942283975
 14.1075303400113246 15.5296543263175160  8.9376527801852870
 15.4110448038228753 16.3282139682781278  8.4318398864668964
 15.4805927731538233 17.7499453360180866  9.0553243529848277
 16.8042396556910916 18.5909926763114086  8.6692736774632344
 16.8599688393984124 19.9995003440598111  9.3377821554305811
 18.1355392563936881 20.9672041167615291  8.9469470424098656
 18.1808479745853120 22.5326836694761994  9.4422884384622918
 19.4397269405526991 23.2189807523749323  8.7635172963284003
 19.4721378398672123 24.7469314710029593  9.0990932211450577
 20.6922302337104611 25.3418412470781007  8.3653191456534977
 20.4853169315727115 26.9091218411698776  8.3774310151150129
 21.7464420164614864 27.5103779665662742  8.9988514455593123
 21.7723508901076208 29.0074076312306595  8.6160099441920543
 23.0813410833591774 29.6622691072478375  9.1613993285862545
 23.1211261100363750 31.1346300098865889  8.6722458975738377
 24.4321417508532335 31.8085502336540955  9.1812583108964319
 24.4355380657376209 33.2923729773284762  8.6567335618670533
 25.7376825979036035 33.9871641942724452  9.1030158599808200
 25.6915563956003261 35.5130627961817495  8.5830977815411806
 27.0081604169481224 36.2475495310093905  8.9217157365075934
 26.8267674064270913 37.8395277063007995  8.3379670101375609
 28.0901679197493479 38.7673869168814278  8.2791325115858232
 27.9850552454270556 40.2368370747408122  9.0064902230346338
 29.2955735156939348 40.9700863603040446  8.5417906994779660
 29.3325518507167260 42.4299443181252371  9.0911551070641288
 11.7406972025063023  6.3478870309010462  9.1266040950530627
 12.9722936278779493  7.1688530877919225  8.6213039532687237
 13.0114927485785223  8.6380838120307626  9.1614756805840116
 14.0651851321761487  9.5904791167072378  8.4265015359159197
 13.9601216333134577 11.0624934350885358  8.8906311310390169
 15.2843042701742799 11.9013653015233434  8.2737806775803797
 15.3070152024859958 13.3305851522070000  8.7707782997295158
 16.6502964010770604 14.1739215935472593  8.2406571214421476
 16.6708398375038342 15.5675279057745115  8.8286495760763390
 18.0262744239184620 16.4635896963159603  8.4073031577757504
 18.0336102778471279 17.8190027202189789  9.1189328821467583
 19.3613445685065351 18.7936565664688260  8.7865001324021570
 19.4303037790357251 20.3150507648702039  9.3744559188767393
 20.7142298124607152 21.0384019664302571  8.7586243193472821
 20.7839464305158970 22.5362859979665515  9.2109527959965050
 22.0758886024968994 23.1987651392459462  8.6049007584588395
 22.1138371663441262 24.7067086372800375  8.9767152732600994
 23.3785264608433287 25.3027950357478453  8.3487707762820111
 23.2020332110694234 26.8565077136587753  8.3738375246523269
 24.3876339307361931 27.4550107088073432  9.1611609478841363
 24.4559142599585364 28.9110962945054055  8.6977060788342477
 25.7112799024754750 29.5850366205569841  9.3040290362238611
 25.7600703998010410 31.0127527152601594  8.7109609781962227
 27.0523046477533704 31.7352027411779254  9.1987460792908191
 26.9866336746181830 33.1886856526686103  8.5567723388317312
 28.3024741628170773 33.9386490644101073  8.8403911993395656
 28.1221059831793276 35.5020342161272779  8.2081917914229994
 29.3940779461080730 36.4563339980974987  8.1578118109905073
 29.2624433484474658 37.9601638499873104  8.8425515331227533
 15.3854556294676339  9.1749804084899154  8.9686544617423767
 16.6661846551515218  9.8861327544621513  8.4534254219150036
 16.6481104357097216 11.4188547051331781  8.8241769575875182
 17.9799549791983253 12.1557993044511594  8.3633210219300960
 17.9911691945338674 13.6520850323789755  8.8024561337272473
 19.3263218933613210 14.4099601146129057  8.4000266504178605
 19.3368515316648129 15.8799717206580464  8.9396990874577753
 20.6407434902505216 16.6603371288356001  8.5581967730536999
 20.6671163132042857 18.1165577900639150  9.1941348449297493
 21.9652287681189939 18.8453061257684027  8.6726732018387249
 22.0250717483912730 20.3123845991451475  9.1981299041729105
 23.3336190911366437 21.0004925142990544  8.6418981518098867
 23.3953178600876797 22.4861292949982996  9.1133067823384994
 24.7176270873740691 23.1670896487687372  8.5889839780195878
 24.7427209896764957 24.6635566796408199  9.0436459130543163
 26.0369396235784691 25.3791906703153387  8.6224518275551514
 26.0368337252167557 26.8116072246589354  9.2351600110554575
 27.2949983978073476 27.5291804576922239  8.6912195670130501
 27.3597848149515954 28.9534734897159289  9.2746774533271434
 28.5656231045235351 29.6429886476518973  8.6062998943329916
 28.6388265107232165 31.1085739572463957  9.0745938490973543
 29.7341074162903958 31.7437975296330492  8.2138646708869061
 29.4838531691153882 33.3363159679783578  8.0236893267486202
 19.2010220377306631 11.4560142280434043  9.0096736227165888
 20.5176311968561897 12.1616052626078144  8.5404235669397366
 20.5446399619850446 13.6695352370802343  9.0046828209086858
 21.8577858195539747 14.3876091749882509  8.5539968886851430
 21.8877616151986452 15.8760326826461728  9.0759525111549220
 23.1971091671288221 16.5847414725553399  8.6017352167965839
 23.2446100949237611 18.0605875146408188  9.1343565712841386
 24.5560731557576695 18.7549481383012129  8.6229938783200542
 24.6118305353331621 20.2324562622487036  9.1330818284428528
 25.9230117807592997 20.9244031832714015  8.6172510168043548
 25.9806665192524342 22.4049036594385100  9.1173034470484104
 27.2821307737930958 23.1017912697154593  8.6095220379557169
 27.3231149161350082 24.5835648240928641  9.1171394451861811
 28.6134765717944362 25.2680127824720557  8.6016715794495475
 28.6429025666606201 26.7440111632969639  9.1105629852315779
 23.0481150743824266 12.1028168462928729  8.6057677272134487
 23.0948451635298539 13.6054988683329228  9.0910016902052480
 24.4021310356158914 14.3047925785434842  8.5953862784878137
 24.4559990306134409 15.7933855116082231  9.1003193002131884
 25.7616611204540646 16.4878749021004545  8.5872049931106620
 25.8238026751306684 17.9631185995029021  9.1094705159923119
 27.1263094905452071 18.6611333128327708  8.5915064581551057
 27.1844746841084799 20.1361009450734123  9.1118907877150175
 28.4922853154496210 20.8340908060677350  8.6051299765890796
 28.5472323572334439 22.3147403660054167  9.1098027718186341
 25.6493178645181459 13.5137591000582606  9.0974878164587505
 26.9509293203995810 14.2040717915362098  8.5744777477741270
 26.9797183078497262 15.6677147559028480  9.0957498048727601
 28.3832654002401092 16.3544416719296883  9.0774959778296136
 28.3940744664528921 17.9168879104987795  9.0975419455875048
  0.6798653164264217 23.0252989964452901 12.3986623751536573
  9.2474159643497114  4.6951671459082984 12.5468247840810871
 13.2466289422155441  6.5922070497881053 12.5390008977466767
  1.0363499940819276 27.5030348303495664 12.5386709495227961
  2.4138744192988471 29.6738916370207413 12.5689545848326230
  3.7892501209002685 31.8534248040187542 12.5873445751255009
  5.1599251919257849 34.0349950359509350 12.5759129781185024
  2.1523948842890994 25.2384637518504249 12.5175778885914628
  3.5891619528754823 27.4140622656913777 12.5439107009418400
  4.9754014926713026 29.5750687906045648 12.5581219678979039
  6.3505048787703062 31.7638003355433831 12.5636253266657327
  7.7356504645592201 33.9384406795448825 12.5510308551007626
  9.1306878405102161 36.0641903166796567 12.5306302509071887
  1.6629549005571334 20.7862556085703609 12.3840068774698970
  3.1573995894354789 23.0054572409593447 12.5445844200208061
  4.7245516475034330 25.2248268697501636 12.5677044078817826
  6.1668876769042589 27.2999407716486040 12.5523274760278696
  7.5151488423764121 29.4819535356353555 12.5670833030280296
  8.8864700435934854 31.6837193682058249 12.5697791886169430
 10.3218920225653719 33.8483831169909450 12.5098563478919278
 11.7526677692197374 35.9055842325847081 12.4363142442590977
 13.1331837575860568 37.9656249297689996 12.4433120854266033
  1.2025014995728704 16.3385386580322916 12.2922875201114756
  2.5409921761666086 18.5790950588616042 12.5431543308770834
  4.0324165721344789 20.8015320035517810 12.7451451126791433
  5.5514763428123564 23.0689457510990259 12.7617294994448294
  7.4119519053293406 24.9581307733918791 12.5382840883398039
  8.6889764711247519 27.1656501637142860 12.5607086409360100
 10.0156733487433183 29.3900352347806901 12.6131400484957190
 11.4029445517144676 31.6321580288958941 12.6145449069469873
 12.9157703252100653 33.6615878321108752 12.4105668614550613
 14.2840756129079782 35.6885153656452658 12.2920690985659871
 15.6192996106633597 37.7046020785775866 12.3603411152620506
 16.9983232732112306 39.6407889291783206 12.7245903289009394
 18.8147023872226242 41.7099774285421105 12.7067806110740769
  0.6179136997256808 11.9054072522374792 12.4792381900867433
  2.1467289021965086 14.0812636245060361 12.2923714971001825
  4.0611167814433395 16.9900380820668211 12.4731051155319062
  5.6399000548428262 19.2556247777225273 12.7293653580023243
  7.1944290957163162 21.5833685754590441 12.7300274266682170
  9.8231508208394818 24.7285727332818013 12.4640582024712234
 11.1387871579682951 27.0333067617884559 12.6290164744580586
 12.4878833864621637 29.2540374082770285 12.7633278153299869
 14.0470366664587036 31.1962155458528514 12.7614167976887032
 15.4005468342167351 33.2203130290611455 12.5232569036775843
 16.6944998475323345 35.2126401694644642 12.4610497799289703
 18.0832935624068050 37.1784807525616827 12.6363259291596055
 19.6093642997464599 39.3283557941595276 12.8764019182428644
 21.4899901808810405 41.5078853494138187 12.7940388792064894
 22.9166686242053395 43.5576188816997529 12.6210601719148769
  0.3022095884803992  7.4283672900401410 12.5441640657998157
  1.7029185403039515  9.6419014706389934 12.4990476507475989
  3.2136300096140635 11.8887547584039250 12.3514558464227715
  4.8534955997873102 14.9128746036109128 12.2654195421306653
  6.5147064225565883 17.0895609139911464 12.4695418049236562
  8.0166522927306278 19.3296686461345395 12.5346313728908694
  9.4329303220042142 21.7295869330792897 12.4524458747558828
 12.1453903652745279 24.5787070404904249 12.5409850555619524
 13.5744611147600445 26.9183574822874476 12.8223737822984081
 15.2863987428131551 28.7234545504597634 12.9074828695408321
 16.7081982677275001 30.8215824009603345 12.7213499715895875
 17.9945574199281850 32.8962397241249818 12.6024897100912376
 19.3367799420647373 34.9473014041630208 12.6271751269507355
 20.7773568009225791 36.9999504614106911 12.7710104997179936
 22.3488191619764720 39.1637273084205830 12.9155720598296870
 24.1794720120043323 41.3074940285412282 12.7562088742471449
 25.5414661337357494 43.3802187939468666 12.6072517255247174
 26.8733326091486084 45.4993069487748514 12.5679053075890952
  0.1129219591930082  2.9761654197301590 12.5883731942990345
  1.4843082649295314  5.1549401167605460 12.5565203887506502
  2.8413175567962505  7.3458460519353110 12.5414962439035982
  4.2245857686722879  9.6306927298571523 12.5057329864417976
  5.9894082536528872 12.9340298928755661 12.3692509491764540
  7.5875978517307203 14.9720720915952334 12.4425019122522524
  9.0637266108784953 17.0982150893055582 12.4819805825349768
 10.4460885506599173 19.3104742483739251 12.4872115422704333
 11.7545491655924188 21.6202355228040446 12.4409327915559604
 14.3617236996825230 24.6854960244508632 12.8749004431483982
 16.3698680871152611 26.2970909663604075 12.9286011050041463
 17.9638824915870750 28.4186043060928739 12.6989387915123970
 19.2513687719241702 30.5518504786176806 12.6234190200755449
 20.5776853534805717 32.6851019146696302 12.6199912557888840
 21.9874979162174249 34.7886815040987969 12.6576234216842334
 23.4923900904545349 36.8766008016465392 12.7275873773034665
 25.1125786692316986 38.9826552474005581 12.7469742080080941
 26.7968851429908597 41.0593632466513512 12.5979123252341694
 28.0975363959256796 43.2132783793565878 12.5598032167840046
 29.4421578930426371 45.3778425711066902 12.5733563145242826
 -0.0037763448187609 -0.0043305066448278 12.6502731155325403
  2.6813386341132959  2.8682655071832350 12.5743437252875889
  4.0329940593311244  5.0239796164490960 12.5596952564084781
  5.3383378977487093  7.1175262584850554 12.5939146280944279
  6.7579546683554641  8.9395195580607254 12.7957403021743481
  7.2440213309249977 11.1002795973316690 12.7280542470642093
  8.8012717375820007 12.9255805607485321 12.5253119187063788
 10.2602049946514349 14.9188865904489045 12.4723817785384092
 11.6200551233905252 17.0078288947574876 12.4638148713058126
 12.8963779936453875 19.1534957437160038 12.5000355065122388
 14.1030432383896063 21.3092775763665010 12.5824913137692782
 15.7337015461837915 22.9836545815523330 13.0749404364095767
 17.6735741632838739 24.0641315167661389 12.9679373097399093
 18.8281111231479876 26.0718411800836662 12.5210808295758600
 20.3888335167962182 28.1474088042880553 12.5052062737095984
 21.7374161730192874 30.3744158746893795 12.5883993316905158
 23.1495466843457010 32.5696828657401696 12.6120704190571100
 24.6485416372755992 34.7115996220416037 12.5786390480545300
 26.2087001172795553 36.7805275390290234 12.4871139029379776
 27.7944316848412960 38.7304526282687647 12.3723458895541683
 29.2475294571766682 40.8954392553774255 12.4875896759850669
  5.2482933965884158  2.7433754557094989 12.5554753086376376
  6.6159280734446488  4.8543532675461813 12.5757478802546192
  8.0090851844344630  6.8837845229239463 12.6456061288693302
  9.4490604547945161  8.7926403129489774 12.8705499215771280
 10.0575008786399884 10.9449700820713787 12.7969116815147199
 11.5253134325706590 12.7870997672192974 12.4943376148918013
 12.9036427009113766 14.7477569406431357 12.4069608373441138
 14.1647388323937253 16.7960892130303527 12.4309255502817049
 15.3509778103459080 18.8560244622451556 12.5588884315339282
 16.5412699691295906 20.8144299121484728 12.8878020031223777
 18.6707326571406362 21.5641962045655013 12.9598765679996077
 19.9361810892166815 23.6879776896229082 12.6249643488709822
 21.2275893718418445 25.8223950075886570 12.3795157382796308
 22.7780985281137625 28.0021083851618471 12.5153890436683621
 24.2172988528212265 30.2870664780439220 12.6451899009858444
 25.7308231722532277 32.5124021540222614 12.5920026072338800
 27.3137331516350343 34.6249107790684150 12.3576618525953297
 28.8397327483047086 36.5141030355488851 12.2138445331213479
 10.6665344976456034  6.7296951753527994 12.6201466441382895
 12.1538843894013233  8.6656652647767025 12.7862755243764656
 12.8434297188019499 10.7739243716598683 12.5994643838994893
 14.2932050718396138 12.4871881685777399 12.2924358858114449
 15.5184432538536967 14.4816069508783176 12.2615061995131551
 16.7328123900281120 16.4527432871215424 12.3818647317624446
 17.7377400315973937 18.4419077438432666 12.7589498944320781
 19.8483772089400361 19.1391751385446476 12.8359506955355993
 21.0280451314691916 21.2789633705823888 12.6729773034714448
 22.3214577295041074 23.4796481424048800 12.5196126134018737
 23.6458968227196138 25.6299352260416811 12.4263300469917457
 25.2193463140350715 27.8685310534104644 12.6871015266595624
 26.7836050196579549 30.1882099558531571 12.7185846190114074
 28.3443514344868284 32.4128347988008727 12.4899612643787279
 29.8484460741835846 34.2803772526201982 12.2033804776158625
 14.8754345846231235  8.6027792222353661 12.5504939280371524
 16.3779437240217689 10.5474964543473106 12.3950006576691827
 17.6960003932962806 12.5729829800601340 12.3077015204710154
 19.0439537461840693 14.5942527157042274 12.3584814265759650
 20.4988510888645905 16.6001953083949267 12.5211596568431140
 22.1364389644252881 18.8386320765995343 12.6143229281505160
 23.4590750814236060 21.0896886917457529 12.5845273924102070
 24.7723500428900252 23.2638091250872669 12.5335097172744199
 26.1391457432408849 25.3398501431912173 12.5845260601402344
 27.6748429069175046 27.5308926140266621 12.6445185381197778
 29.2214783237555089 29.8252412767578789 12.5254257976641856
 18.9920571853845956 10.2986455604587057 12.5473467562152710
 20.3614731835117517 12.3507585713632082 12.4859706070528631
 21.7516035892921984 14.4211715469233219 12.5052026761537913
 23.1676368750120538 16.5568031667845368 12.5526049905327675
 24.6032327921267004 18.7526085091305994 12.5719224508359559
 25.9582766911339355 20.9553460861762595 12.5657167873748730
 27.3296138771369215 23.1097592887191148 12.5586704199172825
 28.7428164398475481 25.2772711653499620 12.5517548711628759
 23.0008512139057828 12.1966996075373526 12.5542202011417263
 24.3655569618170276 14.3190237281631063 12.5519459841608576
 25.7545794486216586 16.4806761624819735 12.5767550992657942
 27.1384149923820317 18.6658023784950657 12.5808181618021617
 28.5106950238856527 20.8515038802787913 12.5617363295744973
 26.9524081948503920 14.2102368960093699 12.5869947287090458
  0.2827057819549304 11.7598853475263656  7.1539033093871103
 19.2286670236107504  9.8497912867480633  7.2339651885972929
  1.0594872068240824 27.5477880256793171  7.2109923720342248
  2.4204724891775795 29.6884428623460366  7.2020953038489282
  3.7960077737893805 31.8568098123819681  7.1945492069200219
  5.1583704912528416 34.0368039571815615  7.2085773065703620
  1.1235076492598501 23.1705357682554407  7.1099387424163210
  2.3410980805397816 25.2831657141092414  7.1983873825037419
  3.6425321272654467 27.4209978154191987  7.2171966635983793
  4.9992020861489435 29.5854998788156003  7.2211757596526418
  6.3685175207960576 31.7570437413402118  7.2264006384961883
  7.7007048506873828 33.9337905893889413  7.2232244188385284
  9.0203449678371754 36.1606428828500697  7.2071704353951827
  1.5257812624076192 18.8291288965022225  6.8149797645102836
  2.4940169492470088 20.9084081537854409  7.1579515998934111
  3.6700318685194087 22.9940579379115242  7.2633020947881883
  4.8769298629504521 25.1380861114201615  7.2494037167291880
  6.1949151370611473 27.3349576186380503  7.2242416641324292
  7.5761727451237082 29.4970885974538994  7.2387569524773046
  8.9429116065824203 31.6385609697126959  7.2414234137006694
 10.1655789936042531 33.8276988904325293  7.1890037336521786
 11.4819442593681327 36.1632306524971625  7.1373108438265938
 12.8565106509964977 38.4427805391752315  7.1627689238614467
  1.5642410286538295 13.8343462103525638  6.9605447065550559
  2.6313304361566727 16.4917118486310841  6.8543160382665773
  3.8346183032703318 18.6471226305877806  7.2618350381500711
  4.9847359573159746 20.7677237224817262  7.4033988929142751
  6.1925091679897006 22.8716570502770047  7.3565833210426739
  7.3620870860105772 25.0925862758297917  7.1983860319387620
  8.7817626011319962 27.2760557050541941  7.2311558193536181
 10.1939300178632468 29.4018724030135949  7.2838719675657133
 11.6096482662655927 31.4886577463392996  7.2771852601953277
 12.4709877081256089 33.9693374949257603  6.9871767618192608
 13.8705214913961008 36.2725806090284451  6.9123657173081874
 15.2942288946860003 38.5758940163515618  6.9966386762003143
 16.7802635623340421 40.8567911594663684  7.2324188067145920
  0.2552358801330284  7.3865718540384719  7.2158377528720843
  1.5924187746665253  9.5015218686684015  7.1697796704139343
  2.8772344882571428 11.6180204083313185  7.0195905946955062
  4.0208971371209614 14.2267062304461351  6.8754341671127559
  5.2824025823305565 16.6079784703576010  7.0839768729070522
  6.4289707927250674 18.7618856865394328  7.2777081465195366
  7.6592403616482390 20.8152089120066606  7.2675241156557870
  8.9285566241843473 22.9047948608409300  7.0958103400599946
 10.0375682843888825 25.1214492039122987  7.1383920868838429
 11.4482664343907654 27.2276290670607324  7.3036813691691940
 12.9013377993419205 29.3785833751731609  7.4314623023697903
 14.5283506623762637 33.1493359447975990  7.0548619308390776
 15.9900812588215722 35.5583049502434534  6.9860030069853227
 17.4232605704437482 37.9534362156976286  7.1834488347549019
 19.2337649579801351 40.9974686530209880  7.3879106989695655
  0.1063076114078763  2.9725014326753953  7.1955778307518727
  1.4797010071276522  5.1362595350387572  7.2192957084608116
  2.8466771977324656  7.2737600276819565  7.2131404867841882
  4.2261689684071255  9.3790640092607145  7.1683734111524684
  5.3606499376708694 11.8068657935041603  7.0215002040156334
  6.5553588343029734 14.2141052542593478  7.0615656868082333
  7.7699389881039425 16.4647200213498408  7.1594953292304444
  9.0283875517759160 18.6160503128589490  7.1945137131662671
 10.3576754599164431 20.7113883593867598  7.1377218168987246
 11.7263065747711543 22.8845309281453559  7.0643257281046710
 12.8044613840484125 25.1009594041451436  7.2574833246174588
 14.1073298597814869 27.2593957343824513  7.4905466031980126
 15.3322823364500636 31.0780107962923360  7.4136653857225516
 16.9142637401688489 33.4026574369841072  7.2576028854772510
 18.3393382682732664 35.7283278274568445  7.2885757438370016
 19.6560067238600240 38.1813985248625940  7.4904760499731236
 21.6496713991336769 40.9403254639117193  7.4752085354392550
 22.9725581788082387 43.2649972592717589  7.2969380595387401
 -0.0059305630554294 -0.0002475847117453  7.1310521478279805
  2.6807218370033916  2.8705688403824876  7.2070080534128689
  4.0565749923136645  5.0501815553465992  7.2318887997572832
  5.4437308417633998  7.2347992619983659  7.2730619226804389
  6.7553906269474213  9.4803829290089627  7.3723500484776734
  7.7954448325545123 11.7797577841054810  7.2596587782606168
  8.9939207709515863 14.1030248031300278  7.1804246506336904
 10.2794222638214752 16.3534947452628252  7.1629217572311461
 11.6375280003471637 18.5405798126911705  7.1708412249016789
 13.0489200221397059 20.7025793510030773  7.1909076458451722
 14.4436494491967657 22.9150833048873857  7.2929475924007274
 15.4360774582436466 25.2048189447376956  7.4906304462097468
 16.3229974088424932 29.0226257760884785  7.5174968433428582
 17.9168474671262992 31.2448905947818929  7.3404129654768537
 19.3832280601064681 33.4799265024039414  7.3105316572767896
 20.7358179094040835 35.7575456860450913  7.3759512063692005
 21.9938306266301993 38.0652333045581486  7.5214044950561583
 24.0789930659816740 40.9102307602135369  7.4244273135348058
 25.4662582943045912 43.2419296112057765  7.2777046375447201
 26.8590989051469258 45.4562424420590787  7.2309599338344190
  5.2288952281129450  2.7801704147322042  7.2258463013525436
  6.5987024155273275  4.9998921914885113  7.2522880323007106
  7.9494990506187788  7.2527311444935902  7.3466026548802494
  9.2008808892976788  9.4638820751595762  7.4908464827014036
 10.1703730634285794 11.7214663415112668  7.3218646238469303
 11.4445832754063392 14.0513669061041107  7.1557379124339251
 12.8116079902827753 16.3279233835370725  7.1252882180611721
 14.2517390489628788 18.5669227273413320  7.2042711630119474
 15.6862880243070162 20.8147729519455886  7.4252469303096147
 16.8343753482153815 23.1006795211177263  7.5795270223592839
 18.0409698673577523 25.0430007613846151  7.2397622617122419
 17.5889553642556322 27.1951075970712743  7.3098111049637042
 19.0575606215921063 29.1631537166533015  7.3133730491960645
 20.5051232210292795 31.2612817635629305  7.3009328792867878
 21.8751044009463627 33.4214060063948892  7.3190972227018092
 23.1383849594593940 35.6404984311393633  7.3519852171597302
 24.3063037520725587 37.9532573991224069  7.4010447342297132
 26.5561021635556713 40.9770292330864478  7.2617477135741932
 28.0284031664856244 43.2033782884502884  7.2303009373936451
 29.4274482464605001 45.3807023334486530  7.2061494401819886
  9.0990413647332886  4.9766314415825148  7.2344940843474914
 10.4292087315409781  7.2275925738890585  7.3396034688660725
 11.6187331812933756  9.4262141329130298  7.4225731585004517
 12.5770423715231292 11.7563885216442348  7.1465871523685207
 13.9521342788572600 14.0799572558804726  7.0119011642596858
 15.3846019062012562 16.3896450105477207  7.0553228418673832
 16.8402949600234813 18.6849725831866884  7.2957948629065044
 18.1072538296590615 21.0062073163011682  7.5690628748438211
 19.3657748906378515 23.0713519971616243  7.3989095595122087
 20.7173343315383356 25.0175966176367410  7.0377700280268396
 20.3502851624713585 27.2173937035546771  7.0535493505526006
 21.7544496590489658 29.1364445820535565  7.2482820185039269
 23.1114608449466914 31.1516492174928956  7.2957005300316355
 24.3665798604431956 33.2619185911106143  7.2828752749388901
 25.5082238222720115 35.4551350283399316  7.2240210971316934
 26.5152974459574438 37.6582983905929751  7.0239584519917111
 28.2832613451257835 39.0056196430355229  6.9469562997865122
 29.3282623623723566 41.0631730731146121  7.1685829061328441
 12.9240667179159274  7.2041066781808993  7.2423152448349697
 13.9954162171976328  9.4698326621614282  7.0583226364651388
 15.2131193174767851 11.8005725577685112  6.9065097133312747
 16.6253309812973917 14.1537350222014329  6.8673381254957144
 18.0377105951541985 16.5362416900102005  7.0359345225627123
 19.3451210309527326 18.8913681732076277  7.4105614513558056
 20.6575202424225850 20.9950152310542144  7.3842539543546648
 22.0411768808624657 23.0502679365427916  7.2383305643922675
 23.4464225533236998 24.9895766580048608  7.0211841614047010
 23.1491907872104434 27.1845451315853452  7.0528857653273116
 24.5347773639700328 28.9487497930182407  7.3304660547078084
 25.7564798709006375 30.9259485182000979  7.3419779035141168
 26.8270377198587688 33.0392456599430133  7.2004181902211926
 27.7965878400907052 35.3304889121651087  6.8951063137444564
 29.6185029981696957 36.6636752424412506  6.8230303723868451
 16.7289744761247796  9.7991249846820274  7.0761307692648332
 18.0740174317807849 12.1205179265458884  6.9888711006484439
 19.4284845233973336 14.4526603333902042  7.0266996969154727
 20.7028399752923988 16.7523209593368669  7.1849948902490981
 21.9524293559771415 18.8668079641486663  7.2953162505213056
 23.3155576615107982 20.9592619188407312  7.2653370020539230
 24.7578036650055857 23.0890747519581403  7.2152090842768013
 26.0563910415756439 25.4569678788853260  7.2446280151921583
 27.2295401841727021 27.5760002945288321  7.3188526523499968
 28.4181678906330681 29.5766052567646653  7.2419245761590210
 29.7586968866747412 31.3448016597732675  6.9080079494726645
 29.1299155871139064 33.4384161137286640  6.7079676973012630
 20.5713093736708998 12.1392892863520085  7.1618484410511822
 21.9081925290528972 14.4050730854306064  7.1756555074302799
 23.2148682533445161 16.6082442014282421  7.2231026706077888
 24.5532325746744498 18.7588076080126598  7.2442438988255153
 25.9223928640457153 20.9152317549928703  7.2390027811253503
 27.2848830161495357 23.1064218850017262  7.2305846333680774
 28.5992932383288512 25.2631072117745745  7.2222021319006915
 23.0599432114780640 12.0845980935815369  7.2270890126566592
 24.4091268733739568 14.3064301602344290  7.2150005902698986
 25.7605293882971829 16.4944265408806565  7.2095482177278987
 27.1226783720903164 18.6685799633671792  7.2139588886002146
 28.4886367043698314 20.8377606304671730  7.2247901373042609
 26.9541525253827672 14.2069243233789173  7.1943117520921627
