C  F 
 1.0000000000000000
    18.0395595029344449    8.9272667440996489    0.0000064479268235
     1.2885399515009306   20.0863502005353958    0.0011427165694948
    -0.0005988119081569    0.0012252588604670   19.7357734998520584
 C   F  
 244 122
Cartesian
  0.7078491444004459 14.1849740654734227 11.1303843516862830
  0.9346727359594756 15.6552172671147396 10.6412888266576164
  4.0044741435413638  1.9110659401879218 10.6403934961495690
  5.3911499533867930  2.4496973843446206 11.1295606837194807
  1.1724294758394356 18.6101735468556235 11.1525470862820200
  2.2641797707625204 16.3177575629941032 11.1720196582754721
  2.4009167952933907 17.7832116749193432 10.6477052639276852
  3.7347106828295975 18.4205858349097049 11.1538089285910544
  3.8466473616929377 19.8974682893476889 10.6432888287828451
  5.1932642143267103 20.5196034938931184 11.1320541414636853
  1.6012440952534670 11.8467830792614066 11.3516744804930045
  1.9581841951790273 13.3195911143855508 10.7552094980288757
  3.1855740276105187 13.9863603912621990 11.3958774862376266
  3.4845081093454442 15.4592805445710297 10.7181134849545234
  4.8174865492655510 16.0758926301631426 11.1579098992566976
  4.9573762775081986 17.5764215535974557 10.6558542482033065
  6.2833043977093705 18.1927828102930960 11.1720494378636275
  6.4126521672038415 19.6707087023000078 10.5930519157889709
  7.7871394019551534 20.1691508521650604 11.0270505981459284
  7.8937331041901064 21.7122920626316471 10.5237704558609959
  9.2674700678087376 22.1657227460340600 11.0065639336766861
  9.4195613266793448 23.7291102320543743 10.6617970630387227
 10.8321234740099168 24.0970467282121596 11.2601606931146296
  0.7521760675972581  7.3491909887308511 11.1678881457898402
  0.8919684643526359  8.7771416900195565 10.6143292906589917
  2.4418030404024509  9.2648309047345130 10.5250761176780649
  2.7433933759677949 10.7548959739708394 11.3006502987454507
  4.0301201722670168 11.3771777229454614 10.7289072789578146
  4.3415676630731079 12.9319244907479334 11.3671248612721598
  5.5511420018464444 13.5447891556047324 10.6030739178336262
  5.9698266493524184 15.2147650126302736 10.5698645446831847
  7.2704257972543784 15.7526934239967034 11.1681970051648243
  7.4705264833348002 17.2748855272874628 10.7197173146158029
  8.8510948864576857 17.6659179151713701 11.2551267974701332
  9.0033499322357571 19.0672262597089883 10.6358168983225259
 10.3180823868754068 19.6607443441324463 11.1097518816480658
 10.4344725528455164 21.1030668917952973 10.5590749157057946
 11.8031873136435532 21.6568206196644155 11.1538729482645387
 11.9387809700298924 23.1148889471812176 10.7559218019017280
 13.4440621510846441 23.6668056871202737 11.2553481932625452
 13.7956519123788777 25.0579629515497047 10.7199927287738799
 15.1842277753330315 25.6271504981196614 11.1722303636504261
  0.2095719881469756  2.9532276308905847 11.1530011486102865
  0.3293106804610332  4.4342252474649442 10.6552139022921395
  1.6987476124216421  5.0632853681253644 11.1573510921275858
  1.8683402123458375  6.4918711584840993 10.5694678114666374
  3.5239233931686007  6.9642640651694201 10.6027440484997957
  3.6214815460617813  8.4182069010543490 11.1035260275843086
  5.0667813244513598  9.0363913156137858 10.6530665473046451
  5.2404862137981310 10.5231266444989924 11.1749717350892581
  6.5742325212366302 11.1725677900348828 10.6531491432367460
  6.7615612827553928 12.7332976880530975 11.1036906034004641
  8.0845441561672260 13.3316538660766923 10.5251544196206961
  8.4371190511606926 14.9176890010661225 10.6144755073295673
  9.7844645854711292 15.1887915150135910 11.2596678484289470
 10.0817131070948740 16.6383205530359213 10.7555938741363590
 11.4122309539842117 17.2498818599230006 11.1536242677867765
 11.5333842726559777 18.7273504487970150 10.6283214976131628
 12.8798816865362511 19.3404934669205311 11.1196787961769967
 13.0220865660160978 20.8131974968260316 10.6284021485681510
 14.4381253254283610 21.3989525122261632 11.1097364931006872
 14.5814451038525039 22.8343336418880227 10.6358791642436721
 16.1438818340044818 23.3366162407410798 11.0269974529257713
 16.3994209806279976 24.7762056709032414 10.5930653581919909
 17.7443300957555969 25.4077453599971328 11.1319809154433447
 17.8788077558752470 26.8850481556705923 10.6432962322069713
 -0.0055313516407578 -0.0018891124955503 10.6448843082827622
  1.3265247606531829  0.6394333525413094 11.1514872136975587
  1.4284550232578586  2.1168724939859547 10.6468128794472037
  2.7659398294662947  2.7311227912224294 11.1712070226173026
  2.8992420764806015  4.2172478288089952 10.7174691884158424
  4.3242896721479740  4.6947471447319584 11.3952984779752846
  4.6594611062617206  6.2230882217458729 11.3667204619947881
  6.1616399288154691  6.7308120774976672 10.7285721356554919
  6.2960832401160527  8.2059947761935916 11.1748044613327266
  7.6704904823283542  8.7989884141092087 10.6529769663314280
  7.7749799612952915 10.2787338958896548 11.1748838192592288
  9.1197507897387791 10.8999443590360556 10.7287320573911966
  9.2242561608173546 12.3253866981900124 11.3005566900801586
 10.7409376407720600 12.7685702780078234 11.3514667922346337
 10.8093924127572052 14.1495119871198956 10.6611949454010944
 12.2393687633096899 14.7994516504954916 11.0060457289371723
 12.5761576805626767 16.3414838907224258 10.5587327565544999
 13.8834363916194654 16.9617858997719182 11.1094900619574606
 14.0841316815668520 18.4810196000342444 10.6282333760355847
 15.4242295641790186 19.1147724905872387 11.1536182199558773
 15.6289661507872246 20.5770292583881691 10.5588947070034944
 17.1327961616726014 21.0563272141145141 11.0062728112438073
 17.4269369378530925 22.4727644708264265 10.5235416241334985
  5.5154288321148028  3.9652532599650216 10.7545578835518807
  6.9693829347178902  4.3924707732445087 11.3510825853472692
  7.3439105722114970  5.9275503661180382 11.3002340453153973
  8.7851461434334119  6.4114852514671732 10.5247257033601915
  8.9285003335431270  7.8563633566960274 11.1033396082316997
 10.2364348682000710  8.4989032568495375 10.6026403979510935
 10.3105371469274498  9.8528091166534573 11.3667705902025347
 11.8017050289174197 10.3267091527163632 11.3954141501034201
 11.8379007728939065 11.7230852377285775 10.7548320149104324
 13.2125472771297154 12.3731919467676832 11.1299189722086940
 13.3189235223378457 13.8365303597418183 10.5231519457115112
 14.7086161013095129 14.5157313769883096 11.0265190262954942
 15.0548081242290657 16.1200070126706834 10.6354686961769307
 16.3444995370118988 16.6887345708762140 11.2548524103616181
 16.6191192108752439 18.2683362485522736 10.7555004599832778
 18.0230684157511618 18.7356192547512066 11.2596379330591816
 18.4106512346362194 20.1429404600901165 10.6613277833620153
  9.9824138065925840  5.3131236013250183 10.6138656637725948
 11.2889471432906277  5.9059727771656698 11.1675018765670764
 11.4733309041147677  7.3013263592861213 10.5692395083357713
 12.7953143440126915  7.8686811653288684 11.1571973451513333
 12.9277608294547779  9.3314080906254873 10.7174813785313816
 14.2814305774100969  9.9589761534779520 11.1713009575263680
 14.3723576566108147 11.4416666412400634 10.6406556251410152
 15.7020522161890614 12.0941318454852400 11.1312573108496800
 15.8275267915538880 13.5746608805397759 10.5924226391854450
 17.1721175758076683 14.2015403379077885 11.1715007731234763
 17.3734319555977237 15.6887042972165478 10.7193375557866997
 14.0248188775160454  6.9973007183180860 10.6549719207109064
 15.3672661842254978  7.6340466282540795 11.1528411838317449
 15.4821335535935400  9.1078649603055020 10.6468201806602725
 16.8125946843750000  9.7582535257248608 11.1515782193937998
 16.9141493910540532 11.2390504021789486 10.6424049825521951
  0.1586754996784516  2.9566384475877365  8.5831082352649251
  0.2291479202959324  4.4407400842139859  9.0810633778709846
 14.0692704582359962  6.9074773929519671  9.0808116371269474
 15.3897803480654041  7.5885535294975028  8.5829433258490511
  1.2042643061976326 18.6082771802497149  8.5853439925945825
  1.0996088779435074 14.1599863198043661  8.6070019156056521
  1.0625005253005251 15.6471050402513541  9.0962656639515167
  2.3877726013738374 16.3085075803568991  8.6056649272400243
  2.4431550968521307 17.7908287912504370  9.0945177085833340
  3.7628720643775395 18.4631201509196075  8.5839160435040682
  3.8372587207930118 19.9394778059852804  9.0901047749347441
  5.1368736790488247 20.6302534449084405  8.5657115743560475
  1.2587935847396445  9.7267017817275718  8.4772518710000480
  1.0542022760801451 11.1719426037770102  9.0757250672358811
  2.4382930232622262 11.9146049944153312  8.7308752895435173
  2.3275439804962481 13.3569607775125476  9.2137694190467503
  3.7104643383141815 14.0498473248720810  8.7104033294933565
  3.6409592032594134 15.5102388896888588  9.1445000916966741
  4.9549250601976231 16.1990037686713144  8.5654229080267061
  5.0129520885742700 17.6600069955089793  9.0817037794466611
  6.3437222294313100 18.3672028294082850  8.5795675547572081
  6.3992573060480291 19.8348137916405420  9.0194499074186290
  7.6432617471079976 20.6781526858640028  8.3416215718518281
  7.7857790135736407 22.0676353393056814  8.9823626429563124
  9.0073408329357925 22.9644548297812072  8.3858388974627189
  1.5234313773029584  5.1210472784191143  8.5648691247622217
  1.5137846375956456  6.6216932267914554  9.0172016689042032
  2.6620651727008680  7.4821165090599608  8.4817930899349960
  2.5915247320746153  9.0838034870992512  8.9813264279067013
  3.8847759030811724  9.7706711076944135  8.5832969720769459
  3.8685514413661113 11.2470344010833152  9.1781888935288123
  5.1546560361527334 11.9101242917761994  8.6274325150795956
  5.1959122832174378 13.3519983992843816  9.1014543142949087
  6.4303454752028220 14.0323885725037805  8.4820715023144473
  6.2593879329928113 15.4570062968662825  9.0175866635672506
  7.5869580350315138 16.2281079437791753  8.5690306071074769
  7.5823719739621520 17.6355162647258865  9.1674513387596743
  8.9621493066041076 18.6652372518798408  9.1341761866570561
  9.0616542908341255 20.0176007242285401  8.3702002146015193
 10.3764722004320582 20.9039287155285862  9.0083495478146958
 10.4549625470977450 22.3311053100305728  8.4366880887804623
 11.7139016229005666 23.1834103326225822  9.2121973958531278
 11.5668720742718865 24.8015050611551082  9.1230578108179223
 12.8306984657006566 25.4806540689468086  8.5694225167285900
 -0.0055758697593035 -0.0017980311618441  9.0908892039360918
  1.3122697125186700  0.6682407523548438  8.5842872457196524
  1.4007514304176361  2.1498184599680736  9.0936288190531673
  2.7121742928027874  2.8430717796552196  8.6048644564488654
  2.7768976684953177  4.3274368751254420  9.1438671411042218
  4.0068845943708125  5.1178751747141042  8.7098693896553829
  3.8685120250627976  6.7531912273444794  9.1011034747272728
  5.1378434150912593  7.4384531054468450  8.6271694150199760
  5.1329082463547797  8.9708231863940160  9.1086002316775154
  6.4371095184422131  9.6694358252745047  8.6172438805465053
  6.4842400964358644 11.1481824727389363  9.1086897479647799
  7.8009453722642332 11.8292061696170219  8.5833058536661220
  7.8527638450586572 13.2926029273973167  8.9814240592601369
  9.0758484298374125 14.1253644917044401  8.4772875251771005
  8.8070273451624921 15.4731142617749313  9.1225899482868442
 10.1348231834884377 16.4094827850460838  9.2118441498301458
 10.1772665092813135 17.8609002473173604  8.6333946767602576
 11.5454046539918505 18.6350065260700894  9.0838551626481916
 11.6308488711894675 20.1160336658046326  8.5621177185433961
 12.9359589162522823 20.8490571939339908  9.0839461712788356
 12.9495899736006077 22.4209812977884511  8.6335839838906967
 14.2537717658579339 23.0711037386005984  9.1342841278073816
 14.0518989666721446 24.7808843027362791  9.1676853873502537
 15.3048277153891270 25.4877805640032484  8.5797284708708776
  3.9475977826068167  2.0259985941367695  9.0953828624263515
  5.2169298953774739  2.8017501977346249  8.6062166241844054
  5.2983980498892631  4.2666175732714517  9.2131500316603816
  6.4921440178318957  5.0837614284068247  8.7303574715320948
  6.3551441198029455  6.6561363719429458  9.1778468576607573
  7.6256047025656928  7.4084357254993929  8.5830497684159504
  7.6942228471614467  8.8892147189374313  9.1085210283101539
  9.0188303797548670  9.6597278815962060  8.6271876633604432
  9.0876817215517658 11.1050370883891976  9.1780298997134775
 10.3809020754941521 12.0099200878347521  8.7306527952347430
 10.4298155541977629 13.5798869965158477  9.0755982973598925
 11.6777309499176418 14.1751031371173379  8.3852460380490825
 11.5024163796124412 15.7454493398069353  8.4362705653815837
 12.7776283861801847 16.3909984972010463  9.0080145008880628
 12.8327805678155062 17.8713186786087519  8.5619504970911908
 14.1581054332997986 18.5377764965835219  9.0837740393693220
 14.1757945062566595 20.0345800896592650  8.5620397988527071
 15.4853619060547949 20.7269263898442837  9.0081925094583184
 15.3751284172953735 22.3087966231781607  8.3701543628574164
 16.6563766625939955 23.2068867562712491  8.3415117939000627
 16.5480898534232566 24.7058528479121478  9.0194449292283085
 17.8681100195583831 25.4014181492733719  8.5656263059069815
 17.9197377658476249 26.8722723250690798  9.0901075303892629
  7.8273510361352781  4.2563957086683422  9.0751248737710739
  8.9766754977818533  5.1562642896050273  8.4767621593814848
  8.8670720340818718  6.6318358540100224  8.9810014069725099
 10.2189074533779660  7.4938251468760129  8.4815760368148680
 10.2469467806853807  8.9030316496218571  9.1010454823956550
 11.5939891443567955  9.8405677976151011  8.7099282336451882
 11.6854389287822897 11.3846230822891226  9.2133845537547465
 12.9947902199115823 12.0465716155068421  8.6065363182652526
 13.0651761385855796 13.5655419442023959  8.9817116440101827
 14.3397669196927922 14.1369319650607501  8.3410445500966439
 14.2026249528446513 15.6955686813927002  8.3697975392344954
 15.4235525008430141 16.2854905181456395  9.1338493514101611
 15.5125735874663384 17.7400381965158083  8.6332331302956966
 16.7907552020584276 18.4289246047633561  9.2117702438170888
 16.6820340091700174 19.9453999063717262  8.4363683418642541
 17.9543369256952587 20.8824056625819274  8.3854592365835146
 17.7885055348505325 22.3886814126957709  8.9820943467113157
 11.5381917843241606  6.9295361169386958  9.0169320985043466
 12.8329696820720223  7.6882642984035892  8.5646954227242489
 12.8935188198771868  9.1705378557773614  9.1438608841881841
 14.2113828089933953  9.8567291111097735  8.6049462787086348
 14.3012731977300085 11.3351183800550981  9.0956323913363395
 15.6344416502886290 11.9902607207640042  8.5649025114719830
 15.6921172218387248 13.4811856547690994  9.0188091416076226
 16.9908764773487846 14.1669459693258766  8.5790136679874376
 17.0052058727047957 15.6054252559091253  9.1670594395574394
 18.2217686748904200 16.3131689554749286  8.5687278787949293
 18.2655730784779387 17.7472143627411150  9.1224498092900674
 15.4674653387193288  9.0675751439253016  9.0936314589700302
 16.7947941941401453  9.7317940456650796  8.5843751079630799
 16.8824744195504515 11.2100899344300995  9.0892174007894546
  0.5790417721267020 14.2473893175811313 12.4976502844477455
  5.4014899956928373  2.3067850804511867 12.4968106006912656
  1.1692267666595924 18.6227943374117118 12.5301055137562063
  2.2260176801576885 16.4001945298972309 12.5453820127358053
  3.7328802849719831 18.4279685579907913 12.5325610759697774
  5.1924398643908685 20.4919130473191302 12.5092914170922072
  1.3938636985361330 12.0698553209284096 12.6877874104749289
  2.9675614411634781 14.2243188018557554 12.7225728199527879
  4.8752490702360873 16.0659251487054497 12.5379882807421659
  6.2611886020932808 18.2426214413413348 12.5496742523149631
  7.8219366899368898 20.1897170129149757 12.4057054940740059
  9.3160105169561813 22.1116893807353136 12.3872433053352413
 10.7556265479831872 24.1613031850800013 12.6340722215362469
  0.7798700739587697  7.3777922789538737 12.5428580229599866
  2.9068649732117291 10.4759158996994621 12.6275407946265439
  4.5344500071355833 12.6817996061795828 12.6912648777256205
  7.2814771704847381 15.7143221187887985 12.5431634542283401
  8.8836044066120703 17.6500021709401516 12.6277512892591322
 10.3155080409376758 19.6594794454322503 12.4876843016300150
 11.7754586211327759 21.6028675118941713 12.5302539334678666
 13.4141530675181606 23.6465232474075258 12.6279742735192198
 15.2385765004629814 25.6212976003639490 12.5498497211709665
  0.2040831755803677  2.9477958734973764 12.5317526693258721
  1.6784878445181266  5.1181379044422295 12.5374354981001002
  3.5391561417564628  8.3597734730651840 12.4701058890504743
  5.2882969975107823 10.4545111058467306 12.5449428404358727
  6.7522474408973316 12.8337229947468217 12.4702777749657550
  9.7670554643536942 15.0902607314451824 12.6335681937169610
 11.4728093923036809 17.2526887938927516 12.5300060254412902
 12.8799213422737129 19.3404117605866759 12.4986841756993208
 14.4384469606689692 21.4017268004639156 12.4876691190893503
 16.1444238905231927 23.2961110873577297 12.4056497670059915
 17.7208912031872430 25.4222177534014122 12.5092213145012039
  1.3171856434336033  0.6301938040629029 12.5290445377268433
  2.7136178539782305  2.6567001927360478 12.5445606124152622
  4.2272074994975020  4.3868141662732061 12.7219583985642846
  4.7796239030700969  6.5150425743537657 12.6908943170037656
  6.3315901850872729  8.2815531109577378 12.5447843461090898
  7.6917805940792121 10.2715488941078466 12.5448622571081518
  8.9010410565462106 12.3232209815968830 12.6274773817843151
 11.0379392394717346 12.8365458410270392 12.6875562179865380
 12.2618827315714753 14.8683498702885952 12.3867330417026853
 13.8858084994219357 16.9600325141801314 12.4874223330236678
 15.3914990065258337 19.1656748530511329 12.5300055348659143
 17.0618610097184700 21.0412192500171145 12.3869578823081330
  6.8798762418844959  4.1011876541938674 12.6871620464328387
  7.5037681818080486  6.2084615193012427 12.6271574366724249
  9.0202573829770021  7.8141297641304224 12.4699153891263084
  9.9976055655451059  9.8107461170771888 12.6909372435199632
 12.1169134718074680 10.3964495952789857 12.7220844619260518
 13.3311322586766288 12.4534482185453044 12.4971789133251772
 14.6733966092622197 14.5354277675147721 12.4051758956841045
 16.3420179287918508 16.7246911091877131 12.6274809493866940
 18.1170926947174280 18.7696521464859210 12.6335428574453736
 11.2503192560466054  5.9155013386806852 12.5424725279281066
 12.7579294717900442  7.8235537460809628 12.5372763724981411
 14.3720327195432240  9.9507198559011414 12.5446543573903195
 15.7264345185291994 12.1071079027566029 12.5084962793311512
 17.1400038139617266 14.1573130983820352 12.5491203795470145
 15.3747043132262977  7.6318532215444250 12.5315925101256660
 16.8252553323755372  9.7546299240107164 12.5291352418105095
  0.1634356081470479  2.9507055552621488  7.2043560889340226
 15.3925489463756158  7.5957979562989077  7.2041920032023690
  1.2090635994385177 18.6205412120573079  7.2077869764185731
  1.2353451818795100 14.2055864445552196  7.2397420653917530
  2.4128791384741364 16.3200221471749671  7.2284259764477525
  3.7552251135219832 18.4620513912788198  7.2051645180936355
  5.0459692659724462 20.6337973628417473  7.1923579333649501
  1.1698988567633344  9.7726258030915609  7.1033514877153943
  2.5067266506672228 11.8907141621892851  7.3501880092857688
  3.7047618999828309 14.0098998307607108  7.3317464454780978
  4.9002846002195257 16.2002988025085592  7.1878032705944523
  6.3750442550844513 18.3178246909457876  7.1994831527383045
  7.3395576534946434 20.7877478997197080  7.0149615080112628
  8.7214690073750720 23.0699737585783673  7.0497593022072307
  1.5496413604120602  5.0732347447313648  7.1872443117743492
  2.6691312014244435  7.5176170708140626  7.1091686122913851
  3.9237526160837151  9.8171311966398331  7.2069152500063076
  5.1547016357147495 11.9130741322231835  7.2495002448771384
  6.4574279016123706 14.0086062819112751  7.1094429720820926
  7.6264959900807296 16.2327778458659431  7.1940607539679755
  9.3666559873263289 19.9360482298933270  7.0460265115556915
 10.7752616445814926 22.2878101032008260  7.1097648690441861
 12.8148448100999239 25.4441641359231490  7.1944518458942310
  1.2992599851481961  0.6664204910371477  7.2067299137025591
  2.6896600633671230  2.8592126247385186  7.2276271724789742
  4.0443428523303773  5.1330662358830645  7.3312145195523017
  5.1352770731191137  7.4371740233900843  7.2492369932003617
  6.4370694040114804  9.6695173046070266  7.2382385010240968
  7.8215626011757875 11.7723092640558509  7.2069185344262854
  9.1599378393592623 14.1794750165374523  7.1033826644549460
 10.0808753167921719 17.8308918965130587  7.2668147514160397
 11.7124585342094001 20.0984330211633662  7.1921378756270817
 12.9716692901582249 22.5195492816605523  7.2670082436833052
 15.2462743472958682 25.4854308670638474  7.1996494092325642
  5.1095815520746575  2.8966558427552882  7.2389666725402000
  6.4786287068196895  5.1551277419374237  7.3496781123923149
  7.5658915864997827  7.4191163603681938  7.2066687519590040
  9.0212319305574997  9.6583012209607944  7.2492550383458108
 10.3258651971499766 11.9626880642889812  7.3499676791440702
 11.7292948991015216 13.8749217515221090  7.0491330523715225
 11.3797718060826885 16.0446335510509890  7.1093800840935355
 12.8072292597602733 17.9509498009189414  7.1919793997014754
 14.1196177412212389 19.9727917936038182  7.1920613111866762
 15.1518764632739593 22.0855175869007354  7.0459875178937503
 16.9030158523427758 23.4151887839192980  7.0148416828973712
 17.9165021214171389 25.4784587589908504  7.1922729557228076
  8.9813629470583134  5.0564713578312768  7.1028506052925016
 10.1846413211985638  7.4823490910930497  7.1089499336204476
 11.5621155187891809  9.8655678454627811  7.3312759083672141
 12.9662845474065271 11.9063065959159360  7.2392703292740190
 14.3967169258502281 13.8192682481107489  7.0143491588126068
 14.1207607049667327 16.0006332754382221  7.0456575624625595
 15.5867670999359547 17.6717200000444663  7.2666459819202442
 16.4842644345605187 19.6897450704477883  7.1094474639449858
 18.1885294758655220 21.0773030294067070  7.0493700006966948
 12.8612828071247556  7.7350242031460583  7.1870760947493233
 14.2086726941795405  9.8293163150566798  7.2277058703033576
 15.6768356040180272 11.9099179829952799  7.1915401585246519
 17.0179890094404556 14.2189157091088401  7.1989353168391599
 18.1979660448588128 16.3452300250492186  7.1937614251736450
 16.8028863880564501  9.7215929225446214  7.2068166822361546
