C  F 
 1.0000000000000000
    10.2890063627658428    4.4573786238798787   -0.0005386428504601
     1.2764900959522814   11.1656800401511962    0.0154297779359294
    -0.0144034806068363    0.0307012113910532   19.7513494130231813
 C   F  
  76  38
Cartesian
  1.3209280191408359  0.5461860134578389 11.1697406416140694
  1.6125396364058855  7.4256231066690770 11.2053046731742452
  2.1153481342135265  8.8006497056090502 10.6281776824898504
  3.4662902143967740  9.2793461794838787 11.1692826401217182
  3.7614747919367040 10.7718281843005474 10.6825861799321284
  5.1627190418019966 11.1329620554165345 11.1832672265132143
  5.4109199823925360 12.6566294486408957 10.7927047069423594
  6.8361232262399145 12.9818322111749769 11.3012810572427878
  0.5314182954802503  2.9741610304709130 11.1704226788505476
  0.8038797359139375  4.4259737499496303 10.5779343001649035
  2.3651460822108383  4.8162530861476416 10.5400041141566927
  2.7420389327440993  6.3036659372984900 11.1680895085811951
  4.0945093614832446  6.7616905388080228 10.5111166884632823
  4.5990368867676930  8.3132251579330667 10.6584122265943009
  5.8908675587212542  8.6169285953877512 11.4858543161830315
  6.3292860699508910  9.9744733835873287 10.7935245856596449
  7.6773383445880405 10.5015254625844090 11.2626211737061457
  7.9046808050430304 11.9505460812103177 10.7159812298031714
  9.3839989224510258 12.3776451595234036 11.2145574700390540
  9.8299873032212606 13.7360238855812629 10.6542804902261370
 11.2360096142481432 14.2437719242443031 11.1517707465115770
 -0.0557978363856352  0.0431781431570852 10.6249188551814608
  1.6014124778293515  2.0087265994864882 10.6927865931611326
  3.0212582190027586  2.3718512649202070 11.3566227064838809
  3.4455146268191079  3.9236428282370888 11.2703264104176171
  4.8818798068375742  4.3569995023035295 10.6298767714126381
  5.2180054463657539  5.7746370074460520 11.0873666933653237
  6.6192371996545019  6.2304442943409271 10.5538782051489104
  6.9992124116704373  7.4578096143373065 11.4749929692929609
  8.4781000429724322  8.0332084120368652 11.3466449768175117
  8.7891870777085330  9.5215301490698003 10.7801978084815637
 10.2074394233229082  9.9642301458189930 11.2223153240480258
 10.4925690902233910 11.4270693750381032 10.6811437602429216
  5.9018465425494293  3.1402218766018075 10.6579280679683404
  7.3529998483722299  3.5995383913146779 11.0425258342948229
  7.7044529326891746  4.9691719901653837 10.4754769940456782
  9.0754235524789859  5.4510223139469209 11.1136843617157606
  9.3705134946572759  6.9188192574852954 10.6951776308451567
  1.2340373392834816  9.6380438463005476  8.5912265215197525
  1.3178013156137449  5.1227199638736494  8.2871386870109802
  1.2193779504775244  6.7220199173354711  8.2596945873519392
  2.6468979626107814  7.4333278813480517  8.3910565710746194
  2.4605943883106871  8.8429700209021185  9.0602243708343799
  3.8288410981728767  9.5698057579362246  8.6134919808236869
  3.8553818161851625 11.0061204092112348  9.1305339273078854
  5.1363711140490276 11.8282702657190555  8.5386705830255778
  0.0110068984655220 -0.0254419388753108  9.0827972909727315
  1.3470865165566168  0.6465327998339304  8.6008841463906762
  1.4568663878440606  2.1237423169058718  9.1319428259043267
  2.7192204921401277  2.9114352945918904  8.7005765995519777
  2.6004042155454545  4.5313026171082713  9.0065108996412189
  3.8834221304113812  5.1485487059606427  8.4667964903426860
  3.9374276824382495  6.6343548774306988  8.9546847096525664
  5.2279669707852525  7.3866139768455907  8.5254626032467797
  5.0440955909935195  8.7592584390671338  9.1991429459338097
  6.3896412308431536  9.6330809973098663  9.2627316801004547
  6.4865133315012136 11.0219145272290309  8.5339819595890756
  7.7767591780343333 11.8485935458930278  9.1096883254144014
  7.7123130167276068 13.2953622282906228  8.4011588643645609
  9.0617333500097459 14.1286576054838910  8.3701976422637561
  4.0438152312800435  2.0265269212915018  9.2610243226375566
  5.3753694473615736  2.8680738340842749  9.1415375251096158
  5.1049937463125765  4.4104527146218562  9.0270946522853830
  6.4115058911387646  5.1573995252094358  8.4670756266117824
  6.4862775860428759  6.5951830351965945  9.0374539612299944
  7.7973537222662372  7.3001490890400733  8.5372922054209024
  7.7577935156267213  8.8820496338753401  8.5820797297216256
  9.0032381567982629  9.5557379637385615  9.2399843036451017
  9.0391612167805988 11.0555527106451095  8.6810697065141067
 10.3484906004873221 11.7571372289439164  9.1568152880860065
 10.1925790710589155 13.4109518711039204  9.1352778396452319
  7.7453385174496150  4.5420758620732737  8.9326567893199798
  9.0952181219307651  5.2254885814658829  8.5269387883007237
  9.1541339886633146  6.7246956555740001  9.1130999492185136
 10.4443603577848556  7.3857791082403796  8.6045703149093455
 10.4905918797759643  8.8663447903230459  9.1084450571625055
  1.2446454896364958  0.5118416441300248 12.5429372896867406
  1.4106579921529647  7.6638013847802204 12.5433573845451676
  3.4033323482340956  9.2853379410300754 12.5441305992323624
  5.1853565235091077 11.1164576888456530 12.5595884414647010
  6.8697545416911625 12.9887542808654679 12.6767618961367603
  0.6305830156771335  3.0093542105649558 12.5443200222386775
  2.9434196624789175  6.1777924292920066 12.5153010883098279
  5.6714774014565164  8.7710942191068408 12.8271572855953693
  7.6925362556378403 10.5110395882354801 12.6447859873112733
  9.3089758195532895 12.4062949729752834 12.5879915265154754
 11.2174124987133155 14.3181346469977875 12.5254178690436078
  2.9013485479538010  2.1070120659045073 12.6895396301505468
  3.6159799868455225  4.1418719823015779 12.6112201295874300
  5.2065481184596827  5.8273460816585656 12.4530308800028369
  7.0428123875114306  6.9619111785971528 12.7531053102380483
  8.8135271428363620  8.2025307210759184 12.6733181392292931
 10.3842871957280831 10.0382375165927566 12.5841409126114456
  7.3173815580673391  3.6321143575324042 12.4259415422844040
  9.0031569564095726  5.4053379118627181 12.4892193551632023
  1.2896897425076268  9.6402987155094593  7.2139063254378346
  1.3130585152892209  4.8319370838735587  6.9507677493498203
  0.8835686648655771  7.0584213598916694  6.9725609580906864
  2.9956479798225071  7.5990609041148680  7.0685002350676660
  3.9484848014064946  9.6494321826246807  7.2422945148617544
  4.8631054472749629 12.0095514339175757  7.2176620977983319
  1.3222728180248098  0.6468177805488358  7.2263521873547276
  2.7925977124183490  2.9327535449363049  7.3265169102301035
  3.8588102027894626  5.1625995297140461  7.0901077398266121
  5.4023610002354472  7.4968948623902234  7.1637708085263085
  6.6736306017073490 10.8728599481946127  7.1931705626252036
  7.2970475215822272 13.1725675724582754  7.0971040705562736
  9.3042103448491726 14.2374544739819466  7.0316971033683648
  6.3133534817471109  5.0683151443059984  7.0941716414379830
  7.8278581385382751  6.9783993491167680  7.1983656724600902
  7.8331998542950618  9.1067527501359056  7.2374685528182665
  9.0272359063670482 11.0524290701140337  7.3086129624060296
  9.2130965814274433  5.2052506745089469  7.1586924705606414
 10.4276128102927821  7.3307213927124986  7.2307127362116912
