C  F 
 1.0000000000000000
    45.0245933109729819   24.5095347224899136   -0.0000003178457778
     1.2825265640153531   51.2543556992850995    0.0002730946903499
    -0.0000613238217893    0.0001123749984332   19.7973456141042057
 C   F  
 1588 784
Cartesian
  0.6224381892763473 31.9594942419928891 11.0123546521393507
  0.7660945024507632 33.4534825510874470 10.5789282666263986
  0.3136682080461915 27.5715385134804372 10.9179956045906135
  0.4994372427129819 29.0277875376661996 10.4052740834299637
 15.6613216897809213  8.4537034781488547 10.6744759558215954
 17.0019750767586935  9.0964630934260011 11.1743544420294665
 19.6104679115234610 10.4884757634657735 10.6493119919335051
 20.9776369041605477 11.0501775738874741 11.1412064437998701
  1.2444699214022026 49.7760224722734108 11.2155867711412096
  1.1328900271430340 45.3686544331414936 11.2018771646024788
  1.1711927070981383 46.8491489081726940 10.7093090433369831
  2.4595043793724489 47.5522634729092673 11.1666206670959784
  2.4975892548233802 49.0158799765026174 10.7160243744244976
  3.7887215195581896 49.7226262178243203 11.1682384121717284
  3.8287680440489629 51.1937676467146332 10.7148913942608051
  5.1141413928929635 51.8950968081296011 11.1644321454037900
  1.0143102539170201 40.8935633176621849 11.1857082769421297
  1.0571318274455817 42.3834671854677794 10.6835281906868644
  2.3533515354959573 43.0973377264122632 11.1935119026763008
  2.3885717853406980 44.5931747034928563 10.6958052328185822
  3.6822720554262856 45.2979779494319885 11.2007806857170351
  3.7137818905819815 46.7816051802438011 10.7056011067106311
  5.0055298703234401 47.4835781881126024 11.2063082462761461
  5.0396399149370081 48.9576939886784430 10.7086964715460962
  6.3364769905851590 49.6605747703666864 11.2048254039660407
  6.3720110576577573 51.1297622053339040 10.7029181071878536
  7.6794079830042703 51.8341435126407006 11.1960413540599308
  7.7160124189469235 53.3059034131868472 10.6910010480595457
  9.0342993020799902 54.0166100509374587 11.1865643613969770
  0.8682258017235494 36.4239071810343020 11.1611472829040430
  0.9332856477524625 37.9167190354803978 10.6700273934354826
  2.2283261636019076 38.6346824077311837 11.1966847746085545
  2.2782380455992528 40.1197621510220728 10.6892059373720283
  3.5762597442693327 40.8342484072671397 11.2008866494811556
  3.6167162375468775 42.3191237572938022 10.6926826757627289
  4.9142771092358482 43.0276270457056498 11.2007946948156221
  4.9458218762417259 44.5156780281564650 10.6964374109776692
  6.2451665150546161 45.2190483137751329 11.2008918595082712
  6.2722288149839889 46.7048732120586365 10.6991814354007033
  7.5782770356617490 47.4060169823020416 11.2005218067548604
  7.6067040384172921 48.8878445873078746 10.6974186477915829
  8.9176229629332351 49.5903949503551686 11.1966575320079791
  8.9516299065316201 51.0666428781910824 10.6897115358064934
 10.2657243405756589 51.7737921023373389 11.1883531907639711
 10.3043356511299411 53.2490617860942947 10.6789462350529440
 11.6181425751657343 53.9578384128510535 11.1769543379802752
 11.6559161549185841 55.4348676961026285 10.6720453844283352
 12.9730456656498276 56.1358293489584455 11.1681605490266023
  2.0411584663350837 34.1664213279777869 11.1864273241866190
  2.1407933363227389 35.6574927587365806 10.6918883686744550
  3.4300836415008327 36.3841159359594997 11.2386475268482595
  3.4974155683219132 37.8619489365300339 10.7147708287716146
  4.7972219136520087 38.5812275559116316 11.2253399447269562
  4.8430519627435658 40.0576238610662543 10.7061735495328172
  6.1446111781521262 40.7664800467554329 11.2116509021376309
  6.1813416714579708 42.2490067345124700 10.7000710547069549
  7.4804300651952422 42.9561877369671095 11.2053414066445374
  7.5139041004963554 44.4402911214247851 10.6977557706147035
  8.8137806038752515 45.1464168436167128 11.2040711912788105
  8.8481692462602393 46.6288543510823956 10.6967890481958374
 10.1507750166636281 47.3359469477578116 11.2032396683036453
 10.1879001123113451 48.8155200576465020 10.6936863955322448
 11.4946629660687041 49.5250819504460935 11.1968805711046002
 11.5344983797938365 51.0018600496741570 10.6836285677819447
 12.8463278072974862 51.7132295535696471 11.1800602786000205
 12.8860987944004908 53.1882032364532691 10.6649806115360324
 14.2071310497974395 53.8958734742251409 11.1486950582081903
 14.2404891051547509 55.3698826610978614 10.6375266056184206
 15.5720739705346833 56.0614545676339446 11.1081883591741057
 15.5923895973228603 57.5433312127284822 10.6284790588655547
 16.9290039644694481 58.2084544228954357 11.1079732638858406
  1.7448610052011040 29.7041263986470163 11.1219529987101886
  1.9315328848424218 31.1892371941598938 10.6426054859070760
  3.1722412036107408 31.8998671556174145 11.2957061545140292
  3.3227194137410274 33.3924979022889801 10.7725871167815921
  4.5851155072649545 34.1236112566763552 11.3447262441978989
  4.7059805313142897 35.6035111458970448 10.7912257905536020
  6.0053358341067407 36.3374681555671515 11.2944745275798173
  6.0662862422572692 37.8005236174814883 10.7389574634211797
  7.3728005525745051 38.5047736386235258 11.2307385944692371
  7.4121146623606844 39.9852280759826400 10.7124522953574068
  8.7121421538527049 40.6920167168497002 11.2124997642260809
  8.7469725403357756 42.1767310168720329 10.7034046650876800
 10.0451848234899561 42.8840715320764048 11.2087930528266551
 10.0809257169987294 44.3687650637859079 10.7034708501540745
 11.3792541705692294 45.0767745114516956 11.2129883627555991
 11.4187871379857473 46.5598357092271726 10.7050180885365371
 12.7194426324331804 47.2706172750275613 11.2137883260089719
 12.7622749971694986 48.7500275221699937 10.6988931717373550
 14.0679887359000020 49.4625582025760053 11.2000664683427775
 14.1118476283349654 50.9382395518259088 10.6769518167540571
 15.4257359733113546 51.6496442594751386 11.1644302882398243
 15.4694307312126362 53.1204022668912046 10.6273359680772135
 16.8039722934626177 53.8224479977203956 11.0718386140472518
 16.8285058846371598 55.2889493079225076 10.5422381881648377
 18.1770644861109716 55.9443495198958871 10.9659298024645828
 18.1820789088394186 57.4457010657869134 10.5019012252064012
 19.5250410853780778 58.0802403632288744 10.9427333322044866
 19.5318704625925719 59.6017197848626381 10.5412070777182763
 20.8786827971624440 60.2115553140047766 11.0107882657981317
  1.1160911969604002 25.1871577709526768 11.0231411118209657
  1.6005513334547281 26.6946109263718938 10.5802232172063899
  2.7540031329341907 27.3496332270402327 11.4182942874176572
  3.0499621687446226 28.8710654221514602 10.8497470804873046
  4.2150958258325639 29.5550876733472592 11.5805286373990732
  4.4600094556959258 31.0891838913838754 10.9844409955799307
  5.6384969941040515 31.7943548137164775 11.6554156245875475
  5.8617098011688951 33.3134055332491883 10.9891459932504372
  7.0632950407969197 34.0467160809167382 11.5816189944450532
  7.2651594466540512 35.5212397206976149 10.8484663072699057
  8.5773302057434186 36.2087993743174650 11.2454318602562502
  8.6318035797386496 37.7097924253527808 10.7254215793149559
  9.9317987271349004 38.4127603405409275 11.2149630533496651
  9.9747771602853010 39.9078995731411581 10.7059400967726077
 11.2725118017769272 40.6170963470607234 11.2061105304782327
 11.3092036467457930 42.1056315020675314 10.7047255454671877
 12.6049577998692346 42.8110146466499373 11.2171759244100393
 12.6451398083630888 44.2992490457518713 10.7154651825123999
 13.9395066748316729 45.0082275845816042 11.2319126908613374
 13.9857364909404662 46.4924115172068326 10.7219760800086732
 15.2847049003809818 47.2031165750677388 11.2334046916417485
 15.3331050115291454 48.6814043533915211 10.7093048738409831
 16.6370858450901373 49.3849619895049798 11.2110987100676986
 16.6875151020089696 50.8592665439251448 10.6767230082559745
 17.9950736553285857 51.5565439093779361 11.1683875450927719
 18.0491482211283127 53.0109275021067958 10.5351763625421349
 19.3978796279120438 53.6058633153969808 10.9212828552160524
 19.4125745732043171 55.1297910703091816 10.3430852151103814
 20.7345665406693520 55.7158316103982472 10.7632721463298218
 20.7533912647577807 57.2890563096660443 10.2758970085007277
 22.0687511278769293 57.8492981747878332 10.7510095431960941
 22.1187664369086647 59.4464269720712082 10.3405420684924181
 23.4457994496032107 59.9634048730204370 10.8842626209442273
 23.5312067675114136 61.5306592568816129 10.5727805827051693
 24.8763404161595538 61.9357960117468238 11.4380907036074486
 25.3346221440185211 63.1636259939027909 10.7496376214641423
 26.6092495861278522 63.8713028775563529 11.2861349649917422
  0.6539463469725896 20.7389208392811462 11.0609826267986122
  0.7002835919561984 22.2089023991035432 10.5239397657248670
  2.0953283066424970 22.8500785630179308 10.9193016733481230
  2.1814599154391159 24.3162333931341195 10.4543612826712238
  3.6272196761430848 24.8539613192799465 11.1931225592348440
  3.9921610050653711 26.3945386050515864 11.4878231536049817
  5.2068382627906313 26.9897246011814005 10.7881216492751033
  5.4264960055422904 28.5145274497440759 11.5501277987436310
  6.6174029720476026 29.2182721197854249 10.9522303330548425
  6.8304561266719857 30.7399300432541338 11.6429608684221879
  7.9953564184392265 31.4415317328825559 10.9694391288568571
  8.2573961665175144 33.0275027184680141 11.5641000492352255
  9.3952122165777254 33.6614342796209414 10.7516773683272309
  9.7631886674606427 35.3989613455128804 10.6347139627264315
 11.0516846020147455 36.0587308597269214 11.1580857945625507
 11.1766937649302491 37.6152864668907014 10.6997160288227544
 12.4780150639695577 38.3407152118862768 11.2034149010777551
 12.5300875019044788 39.8357420227853041 10.6931952487172488
 13.8269244950083738 40.5338444564698364 11.2055891836478523
 13.8686002900965590 42.0317014787284506 10.7155400131814869
 15.1554818813409291 42.7345433724282060 11.2415173399079151
 15.2046343569140578 44.2275524246027771 10.7431160915953345
 16.4925316795001962 44.9329912730201713 11.2714526925024323
 16.5500664350192110 46.4148553603870440 10.7521216518153473
 17.8511149393818656 47.1087494023176774 11.2566441740635028
 17.9002161384633816 48.5782218846224296 10.7348723489651299
 19.1913672079397557 49.2168278696233870 11.2776861612588686
 19.2439043574672937 50.6932580649405864 10.7521648708552213
 20.5972706375730361 51.1800919164295962 11.2531302428321318
 20.6652160807551049 52.5375001967395221 10.5526050551048005
 21.9336400797373834 53.2278776745053079 10.9996680989208375
 21.9594523237886534 54.6427078740542669 10.3415567982828875
 23.2294579815560951 55.3255699578236815 10.8940385195827485
 23.2877139532967519 56.7911285627683711 10.3171103648275331
 24.5441105456658661 57.4465942413243909 10.9443437510270627
 24.6628672457340450 58.9789112552403978 10.4764110670184962
 25.9875877364516441 59.4511314194153258 11.3216628994612645
 26.1528060069140977 60.9904553431520995 11.7822649096557761
 27.6782557680875136 61.6930622117134604 11.6741277828515830
 27.8948282857018839 63.0389370533774098 10.9412518017758273
 29.2481588126667518 63.7563217707450249 11.3685586889328611
 29.3201150010111604 65.1602607273186578 10.7431641447942958
 30.6359242463777086 65.8582397075237935 11.2252996444655295
  0.4387004178136228 16.2983277361228325 11.1262248218071438
  0.4851875648194882 17.7768664134358652 10.6054741239419261
  1.8206003345183679 18.4962677054866838 11.0620038820396207
  1.8783675859694771 19.9612091912874376 10.5082166630331315
  3.2764944558582769 20.6668228629181456 10.8976125241097233
  3.3069535789329034 22.0880130694868484 10.2767966585377959
  4.9097626133922478 22.6163209327199439 10.2759765342340774
  5.0320010093714789 24.0224176864454222 11.0021583460407655
  6.3740107393703580 24.7252501153821456 10.5173145405972726
  6.4804433261579897 26.1712036447030130 11.1464079153111246
  7.7805936890509875 26.9021896274434731 10.6884826824701058
  7.8838896784096635 28.3795085898278963 11.2955688622427459
  9.1488305318586711 29.1119260745420867 10.7702574957995516
  9.2618736560066868 30.6216134702090841 11.3194048618477634
 10.5094958280985260 31.3412389438095325 10.7434910363449863
 10.6486100921364493 32.9030409904482894 11.2025839350630534
 11.8898615921520996 33.5631750930997867 10.5854138341222299
 12.2764769372232081 35.3066112157925076 10.6139200740382851
 13.4644656652209989 35.9952246299569367 11.3387231163503817
 13.7211846183280581 37.5395226933334456 10.7076831764349354
 15.0283746510937348 38.2214385096344458 11.1593498956852528
 15.0820970051404650 39.7488783241152319 10.6924231494851476
 16.3647006022083978 40.4392014056473315 11.2230069048857661
 16.4182210668993278 41.9520337757177089 10.7504874128991652
 17.6918689507720615 42.6448478705361396 11.3044368743522554
 17.7608102204144096 44.1409010633139687 10.8079246695367104
 19.0373642625720940 44.8269147372592442 11.3658487283169052
 19.1153317687844506 46.2895062614052435 10.7758445304829653
 20.4368112082371276 46.8477879995638631 11.2638326795948842
 20.4775406795507173 48.3596913183511887 10.8042405637830026
 21.8286682724584047 48.7983537668350209 11.3544284052326887
 21.8884180053513546 50.1962176038532135 10.7897102413632258
 23.1827241024226822 50.8796536896665970 11.2170667499833918
 23.2051537509658914 52.3080526136021149 10.6079493965035905
 24.4903403238422896 53.0021257089287374 11.1058806556459810
 24.5298324850168825 54.4536416623269801 10.5393297948303388
 25.8079494285516944 55.1389281627546453 11.1064222653282254
 25.8736376788646645 56.6059201693304175 10.5935152733271334
 27.1964342809158524 57.2473343429494292 11.1831514748650207
 27.2667484889646943 58.7467194599071050 10.7586209130616517
 28.6106366593867563 59.3868252325482189 11.3417976731386094
 28.7191390635692763 60.8658739017574675 10.9701744491884199
 30.2314789681071403 61.5223642998407385 11.4546514126222636
 30.4929841587484169 62.9290576971966900 10.8974557170699402
 31.8527865713077212 63.6040448846593733 11.3070747847268951
 31.9040326535665137 65.0509529927907977 10.7460872459417942
 33.2194193360898140 65.7544245199443793 11.2246520402641234
 33.2586354792060632 67.2213602631276075 10.6959986598898364
 34.5641019722391150 67.9269038405036412 11.1951609599384270
  0.2992509148116609 11.8455677516579527 11.1559084861373687
  0.3390276620398380 13.3272931613210979 10.6430088522138799
  1.6455719880941824 14.0427679177707976 11.1366768534839498
  1.6888641411032568 15.5216170204119823 10.6142228968132706
  3.0030261621073597 16.2413527880353854 11.0963798987319269
  3.0576416283362424 17.7125368140457340 10.5555966188708119
  4.4010814740783477 18.4365170615720260 11.0191691578580357
  4.4824824775356955 19.8413299058421835 10.3689042534851747
  6.1643548034804425 20.3672588673965009 10.4109838739722651
  6.1435236847385681 21.8128144905315970 10.8947515827614385
  7.5842143356455445 22.4755372375960398 10.4952608918893784
  7.6399217914274145 23.9315762861883741 11.0339643567741224
  8.9819282214299658 24.6466264234830099 10.5931783037105127
  9.0384400357155723 26.1106906423451441 11.1519327490425297
 10.3391381556590467 26.8443291059666684 10.6633694981935161
 10.4091727194131263 28.3218147215295879 11.2099095362135692
 11.6892160282662552 29.0518484568106103 10.6882968530020914
 11.7626041126616414 30.5521960257701473 11.2021203898459429
 13.0324732857433681 31.2661731174825697 10.6642656666596984
 13.1100362550131315 32.7929670882748425 11.1425808753902160
 14.3890535407236460 33.5006135078133198 10.6584296647639540
 14.6556768902602066 35.0242708669494434 11.3182461279033397
 15.8249441344925117 35.7081336340518334 10.5719380455583245
 16.2224347845679482 37.4509297958199951 10.5445809088931206
 17.5158440634329757 38.0967729424271297 11.1120896588297864
 17.6134228590276507 39.6523214971965174 10.7130197930405728
 18.8853943435091338 40.3277555347777579 11.2950975469719168
 18.9573310772969528 41.8476009203263430 10.8456357964546442
 20.2065355691630231 42.4933727333591449 11.4680664434067250
 20.3024878394242592 43.9791773481099924 10.9749197980111219
 21.6524097980328385 44.4592913826404370 11.5244961891853723
 21.7536321597816737 45.8158845702953528 10.8786550000316620
 23.0647533126443491 46.4403783118956923 11.3482452678383368
 23.0711841242133993 47.8643985593553936 10.7965990095641171
 24.3979938610445579 48.5452036727297553 11.2608462658918853
 24.4373355230508871 50.0090997798231669 10.7296083804076936
 25.7401748662863277 50.7004940486717999 11.2086568320133289
 25.7704576086589618 52.1676340578073905 10.6668330768631421
 27.0661337851628510 52.8622526393310110 11.1816814098352886
 27.1082650688096187 54.3328143241669750 10.6652126131456093
 28.4180860845723977 55.0120064082147451 11.1991643825941480
 28.4754662964817946 56.4851822785039843 10.7075038153343094
 29.7963798827170336 57.1665387641820857 11.2538292703514422
 29.8664807834158346 58.6497366757949266 10.8020580666318669
 31.2443541247155849 59.3064366166392603 11.3135021667859927
 31.3649373338053756 60.7520058604304793 10.8313726871125589
 32.9057128591786707 61.3818719938188906 11.2358455610533223
 33.0882414717770246 62.8030126597085285 10.7393588852624617
 34.4240681883252577 63.4932793008852911 11.2327197319356831
 34.4796503243814243 64.9632121523134032 10.7205721419057607
 35.7921468496091322 65.6669248590942516 11.2100375725634471
 35.8303324015743243 67.1445632117651456 10.6947359771877348
 37.1354017140737511 67.8525939891085699 11.1925710367431801
 37.1727638570355552 69.3333839491132693 10.6826323548293978
 38.4771070118095579 70.0432719611481787 11.1858720538499679
  0.1838200519410003  7.3834466119127802 11.1751264730752737
  0.2214696768132394  8.8698649176163098 10.6627814361372977
  1.5210518914336331  9.5848864536484459 11.1657138940747274
  1.5606398676661937 11.0684528384325240 10.6538360485833437
  2.8617807709131382 11.7841521854180318 11.1550112218538970
  2.9042661629459330 13.2641806853386353 10.6362174619393972
  4.2077803655913195 13.9816201977173318 11.1344139727826423
  4.2574962158182785 15.4556660726550064 10.6028187575480537
  5.5723364212762734 16.1632973836825649 11.1129925617890848
  5.6481594027850868 17.6331061248349563 10.5958199084431079
  7.1004457319734415 18.1931637245725319 11.2351714156294449
  7.3356965686811595 19.7123275007690921 11.1993060329363701
  8.8015337697969986 20.2335250253408283 10.5613720586637783
  8.8606945942626947 21.7154541451355882 11.0366751245215884
 10.2024328215637592 22.4126119168608078 10.5677845744354997
 10.2416192640575563 23.8775303006633735 11.0971185904277618
 11.5582928719019371 24.5975152810110949 10.6180305307814287
 11.6029611719632264 26.0697172709564278 11.1430874180528967
 12.9024647597307887 26.7938025863063132 10.6452793092320448
 12.9517241175371662 28.2749441670152670 11.1633702267263075
 14.2415326647431328 28.9946353348054267 10.6526760528710120
 14.2897490648354317 30.4865638950696756 11.1553644691430378
 15.5807676949474381 31.1984837560857926 10.6447096491084494
 15.6363924300147303 32.6973805727080702 11.1425880326936433
 16.9367964079602089 33.4249792311928431 10.6427390796032615
 17.0654268386702519 34.9825964374092422 11.0811335863336691
 18.3396606776223621 35.6570076920748278 10.4973511724648549
 18.7352444957401758 37.3726209580350712 10.5355938422266586
 19.9924685381718596 37.9902292026784494 11.1951880674239064
 20.1404172565290374 39.5413312533355992 10.8123186589813809
 21.4187042596516939 40.1441866988465605 11.4243185967621894
 21.5045440080542178 41.6705897663726859 11.0583316474399282
 22.7830717777754401 42.1603393967735727 11.7824041792924490
 22.9799390512131829 43.4639084035024865 11.0535918134836209
 24.3150802497570773 44.1152534460811481 11.4073913128145481
 24.3227149730196537 45.5642822619854186 10.8477615967976444
 25.6440684933548155 46.2484626892194584 11.2854304635748086
 25.6650212933044024 47.7203684158609960 10.7689407395883148
 26.9732406788635082 48.4156995350368646 11.2440197777265496
 27.0057552082110952 49.8919912996255306 10.7244745208124552
 28.3083338268898324 50.5905360469470367 11.2183899996982728
 28.3447563093760344 52.0674880777229347 10.7057449543542305
 29.6519939215291295 52.7613998819825909 11.2147464904894605
 29.6963954692318843 54.2372403109670884 10.7160878046427754
 31.0125410993696811 54.9278658567045355 11.2347446355277949
 31.0645556707867918 56.4071854267941220 10.7531416445178785
 32.4028039754465311 57.0939835488732186 11.2563354918369107
 32.4805746822646242 58.5834584723622811 10.7852190916123529
 33.8958131129824594 59.1999931606111218 11.3630131165092969
 34.2005007917214456 60.5874371889124959 10.8043680633260184
 35.5786935197391685 61.2826957190049058 11.2898274375138357
 35.6782991042223827 62.7137858434944917 10.7311894480089105
 37.0061353372625987 63.4099198882149153 11.2112322263014672
 37.0525390295428849 64.8846191484309998 10.6983706669681151
 38.3606715613798812 65.5912023749066861 11.1914371549989831
 38.3982024769698924 67.0749823615544614 10.6849001363996106
 39.7019135486251145 67.7855589391081708 11.1856218683267059
 39.7419692519753198 69.2709533951290979 10.6808032966681736
 41.0466724481754355 69.9835461906737493 11.1870566586925975
 41.0948190299776712 71.4700564678373098 10.6878972944105595
 42.3977633967238035 72.1837109929383018 11.1985418678270481
  0.0729023297836695  2.9401815015708093 11.1609965695574633
  0.1096901314737034  4.4050334754646689 10.6966241492772838
  1.4026771289712479  5.1145850609434103 11.1916856209588964
  1.4435582224573669  6.5993674275803196 10.6780071272475876
  2.7424892509669170  7.3212744002853123 11.1773867179759847
  2.7825387142411131  8.8074350995654136 10.6660676997416193
  4.0821664295311271  9.5234224977306301 11.1720775271865325
  4.1243493456565066 11.0074499457564929 10.6598957095502467
  5.4237588383140984 11.7232959206398526 11.1688495794089455
  5.4731289338163789 13.2054227255781154 10.6495387519092173
  6.7840401253486613 13.9204472072095342 11.1608456193576444
  6.8560234082140186 15.3927468735948185 10.6307306481175736
  8.2590543842171282 16.0691497639657115 11.0966021707953963
  8.3032698206874738 17.5007051376675271 10.5358882867008834
 10.0007884741510882 18.0384088033581378 10.5279027260793896
 10.0469283122826702 19.4839337852558963 11.0750908794802356
 11.4179354037727983 20.1765509084424686 10.6158618570389418
 11.4571316700281081 21.6538872678690169 11.1030891239558454
 12.7844666488520211 22.3585227739562313 10.6207771351736806
 12.8213809994924919 23.8336780524864373 11.1245221030291361
 14.1301228236459533 24.5469392370343691 10.6295148205370573
 14.1674950122569943 26.0239909055854817 11.1394081654430632
 15.4673512126162489 26.7403886824994039 10.6403901326093706
 15.5032849080893023 28.2213151334210934 11.1514742658357644
 16.8011158581696840 28.9372659279424376 10.6569380457806897
 16.8327920592762865 30.4247194691359510 11.1660920812798299
 18.1347471993118994 31.1419934891017185 10.6892309840529496
 18.1698042869363334 32.6503347692976860 11.1897301264100850
 19.4795497418259345 33.3645385550612374 10.7228908886259013
 19.5371466842014634 34.9316237003969547 11.1437800628686148
 20.8989343381144117 35.5886280581912402 10.6803648493108572
 21.2048061887167414 37.2242470308199458 10.6680827885978253
 22.4449223440508803 37.6537147361739173 11.3455977750889598
 22.6632449662265572 39.3769352536778996 10.8954764246144862
 23.9576286377284653 39.6078620790572700 11.5814246843166782
 24.1529163983905661 41.1837442624955372 11.9004004862133268
 25.5689592333210918 41.8102918717482481 11.4155723456670444
 25.5360136679575795 43.2606822092423400 10.8270142714228577
 26.8759345738838711 43.9554269198016172 11.2315843923708183
 26.8929109721927766 45.4380534103029063 10.7402709245746220
 28.2024427658202903 46.1277446378860176 11.2184117502014811
 28.2309361617774819 47.6174388606556818 10.7265092216978921
 29.5354929448470962 48.3160501664715483 11.2173672308352828
 29.5728704124011834 49.8016707884939720 10.7176711210423861
 30.8798420771324089 50.5017835522682006 11.2155248055191130
 30.9209658266020568 51.9822092836057195 10.7157195074795943
 32.2348668980639204 52.6794664693981005 11.2154186350544762
 32.2778614200427469 54.1575359056691639 10.7236066376151413
 33.6025765723880809 54.8459007491692674 11.2196423930630012
 33.6563207383953724 56.3235248723880559 10.7447292037839137
 35.0198687444600409 56.9766515729221652 11.2587164001825659
 35.0844193357404208 58.4433669028069218 10.8281786986606932
 36.5658775888055843 59.0872958031669526 11.3172338174205453
 36.8384446373988155 60.4949355184714435 10.7938853133939983
 38.2083771658300506 61.1594056822293481 11.2091432339930748
 38.2619408057262120 62.6267624625113939 10.6929137820810851
 39.5793283306963701 63.3263140443365771 11.1752760271546752
 39.6198340324438334 64.8132514556283752 10.6761909816139688
 40.9234057992778375 65.5220648134141044 11.1773655940956971
 40.9628753925175602 67.0114815680573486 10.6768556853873182
 42.2644371831295089 67.7243116797770739 11.1829935137926419
 42.3095188922125729 69.2154472628391488 10.6834273888364759
 43.6086642701162717 69.9335502063150756 11.1926382290739301
 43.6533676248151039 71.4181314425226361 10.6994799916481593
 44.9436673284546870 72.1251722855634085 11.1639117260847698
 44.9801254415647591 73.5891510701132745 10.7140335215703999
 -0.0005535531192234  0.0008343910886553 10.7194620035375241
  1.2986839550065912  0.7089986784562982 11.2140656939416878
  1.3302917830037233  2.1735067508845560 10.7111383362735229
  2.6162149991044528  2.8735325733105612 11.1603782615587956
  2.6564518232583900  4.3441419017523737 10.6947199150970711
  3.9559299271724768  5.0602354496813460 11.1887756281778454
  4.0017856480189993  6.5442010611485095 10.6786268995938460
  5.3042240922498038  7.2626361891377247 11.1828352925680932
  5.3454211528340716  8.7476170694599666 10.6753202629516384
  6.6441527233944591  9.4591956906860144 11.1886813238408305
  6.6881134338607096 10.9457351548265560 10.6813768176240043
  7.9841186809074882 11.6551935957195134 11.2042123283053776
  8.0459632094238351 13.1408277942847072 10.6887655852704260
  9.3648199053446159 13.8493744378241139 11.2164946737228544
  9.4808115745718364 15.2773917392328489 10.5947136051314796
 11.1609096690115877 15.8302456411937857 10.7292585545363810
 11.1846441878155769 17.2991875832062263 11.1692364550041798
 12.6133685433414016 17.9577855249050238 10.7260085249197896
 12.6642304669626515 19.4393297865779466 11.1760910447868831
 14.0090071168009906 20.1248080555155866 10.6765583313635304
 14.0475406309326871 21.6060910163864897 11.1473126397590363
 15.3629317043621647 22.3046390782852377 10.6407341831559776
 15.3978886045481325 23.7829885948016013 11.1350505385121643
 16.7011718611652213 24.4914119026553472 10.6316299858009096
 16.7331254922721762 25.9679388548592804 11.1407497338577208
 18.0332231610819065 26.6803289818396756 10.6468279757757376
 18.0599196895270850 28.1565819753042561 11.1647528222659300
 19.3616006418979509 28.8701359224588501 10.6879138706040813
 19.3794028578285094 30.3463084765628430 11.2164535870005153
 20.6873307959682151 31.0582173318173496 10.7666763604847038
 20.6961217124814425 32.5294719115711786 11.3073608118339610
 22.0264517734665155 33.2357061232680593 10.9347465946568221
 22.0039288655343128 34.6699923137982324 11.5710787031645115
 23.4263815419362480 35.3194882177207958 11.9174343809282934
 23.5685321538640586 36.5248942038127709 11.0031135974840897
 24.9636034107093252 37.1886140589960803 11.3564782378934463
 24.9891499092239293 38.6527218893504312 10.7450827692796071
 26.3977947411332643 39.3650664884957422 11.0143870265091888
 26.6393389367229148 40.8955124978244271 10.5764080965322531
 28.0325946986083245 41.5663725086631075 11.0154419409969915
 28.0909745550225765 43.1276381749676503 10.6409759457701902
 29.4011299442821610 43.8083659479611782 11.1339895740364767
 29.4442404155446198 45.3309678469434800 10.6803065613700046
 30.7453919716850450 46.0308339862452272 11.1815185248843498
 30.7897725280695269 47.5314129009688742 10.7014059082428510
 32.0939400494457132 48.2360655382362964 11.2028441175810354
 32.1403555248766253 49.7235725961805244 10.7071655734292239
 33.4524947905356740 50.4279371672258137 11.2010885642758513
 33.4974765590024006 51.9080088161268804 10.7003294747544011
 34.8212015518312086 52.6087164845622226 11.1833527551442646
 34.8628602667859582 54.0841066278706322 10.6873743303546043
 36.2092043350736645 54.7676118982297595 11.1565740438451435
 36.2549867449111787 56.2397779694406310 10.6818181611975351
 37.6493464167348861 56.8929622750001940 11.1404264542873381
 37.7171764404829588 58.3355419649124940 10.6671561695263204
 39.2787190127259009 58.9416292153263299 11.0457105208867503
 39.4441071356296291 60.3787696480434946 10.6015295328653405
 40.7789266090990452 61.0516346063502198 11.1107785149447924
 40.8332914426569431 62.5474271106216761 10.6448952956163136
 42.1379540476519949 63.2525792962928577 11.1544067299319121
 42.1819329376020136 64.7473372138726262 10.6647777634054872
 43.4815650120815462 65.4602065474576591 11.1752480576730999
 43.5237525155799858 66.9520433316264558 10.6762600758255015
 44.8216792022374335 67.6681191321996636 11.1862768875807159
 44.8659520238856118 69.1654868455027412 10.6907345660240125
  3.8694618283243845  2.1075301821928685 10.7061166442841067
  5.1698234971862673  2.8156231358731652 11.1983854360902910
  5.2137560837369801  4.2896802863085153 10.6882836753685595
  6.5253764748017247  5.0078927300897735 11.1863458532792244
  6.5679647058938846  6.4900189248398981 10.6812638823952071
  7.8714233440068506  7.1979745742589634 11.1919112292042211
  7.9112130924925168  8.6826878344980543 10.6931234876518477
  9.2073574015548303  9.3821976113147141 11.2186054450899046
  9.2506051204303308 10.8715145182255224 10.7275228699039609
 10.5391927297227710 11.5534677023596952 11.2937450915053397
 10.6196097260753692 13.0526562146706802 10.8403518958894178
 11.9821216862050068 13.6230626903827847 11.5878445199396971
 12.2670536518823070 15.1687138922077054 11.5632442003972056
 13.7796013493130989 15.7346675690348992 10.9867612515010347
 13.8522436835445095 17.2441082425655878 11.3248913347943745
 15.2243939273467941 17.8996150079425291 10.7882818835691587
 15.2756005472539904 19.3882860256618841 11.2168190986335023
 16.5976563564935198 20.0646969971614340 10.6781273581893945
 16.6366760160676996 21.5477198418205589 11.1500628996204760
 17.9397466018273022 22.2447340999084311 10.6286590637308365
 17.9734527708950722 23.7210060037023709 11.1294020302931891
 19.2725958850883501 24.4270823835492550 10.6223732186839506
 19.3010266760740912 25.8981040870652635 11.1441138925988152
 20.6019794366554585 26.6078882468294147 10.6583003247095540
 20.6221189548106416 28.0752122540923281 11.1949673840096100
 21.9282344686549102 28.7866498821881116 10.7325818462023452
 21.9403262984518896 30.2436712592654864 11.2983091525118287
 23.2649878529587610 30.9447868957140670 10.8832796668875975
 23.2825616261303736 32.3798852344023942 11.4713173708763971
 24.6535926900448210 33.0606490444879455 11.1427989026762297
 24.7413695882212465 34.3218334813891488 11.9767615363213107
 26.1877574578577885 34.9504047846429984 11.7154901887667080
 26.1341304640985932 36.2783475531369177 10.8856824190694930
 27.4888564230127699 37.0434497335880408 11.1627176225955562
 27.5070855064232802 38.4691943161540522 10.4632110605740767
 28.9284904989124882 39.2280238620753750 10.8361081244038200
 29.2239141295717317 40.7980292928993435 10.3796375017009286
 30.5309524113576458 41.4842753120004488 10.9298521143147394
 30.6297739609649895 43.0404442072774671 10.5595259104121624
 31.9151212619790350 43.7352103438613540 11.1044058382264765
 31.9917592541823801 45.2560797538246575 10.6561070304532066
 33.2863068525705970 45.9641964480514602 11.1790995027191435
 33.3474982987282615 47.4606928883485111 10.6934395219905696
 34.6523863382911443 48.1674172829496001 11.1958944977448809
 34.7091447447651831 49.6537556984863784 10.6899103122538115
 36.0260633573499902 50.3654322213971000 11.1691170013774403
 36.0774326916957619 51.8407424318848982 10.6571922050690784
 37.4170201623795862 52.5460039287940717 11.1143271451130392
 37.4575395544129393 54.0117238328289559 10.6037922383111098
 38.8299684655255035 54.6978094856036066 11.0307678403575320
 38.8744362585135335 56.1765667619754652 10.5535634089568866
 40.3397397581350035 56.7545736339100699 11.0484858541011182
 40.5761113067990706 58.1593189256122471 10.5334122996985933
 41.9430867073493943 58.8062797198843228 11.0305933155801412
 42.0323343862988636 60.2876847348125438 10.5742762837108746
 43.3375518322178976 60.9842114821718511 11.1102490674000176
 43.3965413250519134 62.4826413170586221 10.6382744763272914
 44.6931250803213587 63.1947745198439819 11.1645818168326478
 44.7419318207955143 64.6874841447922080 10.6705799095195459
  7.7929275804161033  4.2400591963674925 10.6807574425326273
  9.1034146541360847  4.9473587690327996 11.1845168409430578
  9.1415150426786749  6.4286250249769967 10.6867510080364116
 10.4489102681752719  7.1263567084187285 11.2002371621685501
 10.4839252280546642  8.6133312553655657 10.7195957572419669
 11.7886039120926949  9.2937944861286486 11.2575926742807191
 11.8289434101062767 10.7918313190778328 10.8099299942676215
 13.1566378249907316 11.4331497891035170 11.3837151886824781
 13.2251039331159674 12.9450958223127799 11.0190854201595965
 14.6349682099760319 13.5244957719373478 11.7053885906765913
 14.9587301529547787 15.0851211002844767 11.6840338719024004
 16.3942497035949621 15.6602273676050672 11.0095245525847911
 16.4843937934084686 17.1792954698032503 11.3354939219399871
 17.8237832062086419 17.8249497449418932 10.7350321061797107
 17.8789610504694920 19.3139533702630786 11.1832434896485395
 19.1810354846965581 19.9946672080782193 10.6258687853535196
 19.2198747506265128 21.4730551858941325 11.1173006372550702
 20.5125894984985919 22.1679661941506332 10.5847166206638352
 20.5482086911995907 23.6395467969226374 11.1055076019027954
 21.8474107272022593 24.3419951891239528 10.6038409226614991
 21.8734894902024557 25.8008746119539509 11.1451450736823947
 23.1754200780855371 26.4985649785525830 10.6636960145673481
 23.1903974506682928 27.9568810447890996 11.2248033408886965
 24.5193395275730346 28.6459838811872665 10.7924247179394346
 24.5337328400088133 30.0610098938661672 11.3596009287571373
 25.8567210743000615 30.7353748261209674 10.8953880574166799
 25.9116752159941370 32.0247284183744512 11.6924831045099946
 27.3851648214419079 32.5875479521140150 11.6562504835945013
 27.3389261964852501 33.9854792677629547 11.0313594680185343
 28.6956634438638289 34.7072886474763536 11.3157245662379236
 28.6814735996027395 36.1558188118977100 10.6760033036512638
 30.0128664022631035 36.9088313370382011 11.0325596607382330
 30.0631733595013984 38.3590223933902266 10.3493954884091277
 31.4446268760584644 39.1310569740175254 10.8040202510395797
 31.7514275421250964 40.7216633956983358 10.3649494574534753
 32.9995817761887480 41.4118386675294445 10.9986430523803751
 33.1538395022323726 42.9682552410373972 10.5937297128655850
 34.4121771756634161 43.6670536385869283 11.1797537375177569
 34.5317111610603078 45.1838972215112165 10.6832972939323803
 35.8303273886548794 45.8838778276637456 11.1898834956578064
 35.9026469333432630 47.3892358585095437 10.6947393316094601
 37.2005718473438804 48.1057733257399533 11.1853075847960035
 37.2754556995337580 49.5888823284283475 10.6572207616306631
 38.5932161850467352 50.3108499422076463 11.1180541574881229
 38.6611064670736937 51.7734747422984753 10.5720018537627958
 40.0269683775351552 52.4784131506478815 10.9712095872089552
 40.0616827056119504 53.9271156914085665 10.4450671098986128
 41.4849693922371188 54.5433432638954869 10.8389952828041611
 41.5115088218971451 56.0052755409993992 10.3943048705319043
 43.0339099749780587 56.5737587463056855 10.8304936979961290
 43.2130966516544106 58.0376384401020857 10.4532336827431269
 44.5145395177874263 58.7179262670827669 11.0504860919668229
 44.6019157179855981 60.2209015886980552 10.6051049548738749
 11.7218380198487413  6.3626069221788377 10.6787814836190442
 13.0413776629387765  7.0475225193443469 11.1830988613002766
 13.0683320524995015  8.5386449451494997 10.7264950244416806
 14.3935664042526916  9.1986656736087511 11.2521281124879007
 14.4282816280318738 10.7014923947239158 10.8404166594420577
 15.7771479777839012 11.3329721804133285 11.3943159246151762
 15.8443667810559514 12.8519996946941042 11.0651716532980267
 17.2821339049794531 13.4283248886779827 11.6827801401969964
 17.5913390116392527 14.9949797235656508 11.6343001043494016
 19.0345872193004872 15.5596546014951240 10.8840417206417683
 19.1031661960857200 17.0765914918469228 11.2150525208199650
 20.4129921961675507 17.7034686365537972 10.5833896778580048
 20.4671637922809495 19.2010727740703508 11.0832187528266992
 21.7634394156762241 19.8714534729341814 10.5434462455603537
 21.7866754138048471 21.3629059316013361 11.0636432047054729
 23.1009123980783428 22.0462686534092818 10.5761705157441455
 23.1322533897355385 23.5085339341543822 11.0651575594838221
 24.4016682544672605 24.1848136810211081 10.4950021426472322
 24.4538201830056785 25.5948233511496213 11.1054121309979177
 25.7218154975264426 26.3134526781032392 10.6335779443240330
 25.7234724422873064 27.6311911226641023 11.4267625212232140
 27.1701176634761765 28.1767360410118641 11.4674105156807595
 27.1725624829455228 29.5745079356150598 10.8130916237436292
 28.5029184390083294 30.2085885184931549 11.3382750882166459
 28.5466959543365668 31.6720550203338114 10.9077139292459506
 29.8867920202089614 32.3623586829685905 11.3079195973322850
 29.8916934374682945 33.8456225428032909 10.7632957939752920
 31.2079974883575666 34.5804767516315650 11.1700551529603196
 31.2221452846075849 36.0521399414819257 10.5663437261359352
 32.5320597590956808 36.8002436115501581 11.0018122987056675
 32.6058675757487677 38.2749810350117698 10.3690874011927505
 33.9414250195655924 39.0284370957331461 10.9221641535638163
 34.2263702787029160 40.6570439485149322 10.5380040397585617
 35.4458706013314000 41.2836380442082600 11.2162980631069047
 35.6463847275104726 42.8886712134534989 10.7378384245028027
 36.8962681229060081 43.5431512036108685 11.2773489508899214
 37.0769859904839549 45.0788378201706692 10.7052627691733822
 38.3258207046812345 45.7961931509339593 11.2242891017443114
 38.4411333441142347 47.3141038112379846 10.7085144604999378
 39.7134476887656263 48.0327988330146809 11.2298631830816316
 39.8302088960651304 49.5194133514368531 10.6336206735279184
 41.1382861416517116 50.2526571616481945 11.0735124748051135
 41.2589038908102452 51.6803159149478688 10.4020204014515460
 42.6926631217734851 52.3220553932367167 10.6950888536890236
 42.7295172678135842 53.7991788613489774 10.1952504781881874
 44.1799234678408297 54.3498946539311873 10.7477108407274962
 44.3661117333253401 55.7911671918544130 10.3183900342570443
 17.0253319640205127 10.6121256841951244 10.7894598628285472
 18.3890673244155920 11.2231203691538326 11.3049650068358716
 18.4680553247628438 12.7545108395296882 10.9899496713898017
 19.9306654592254091 13.2770561431553062 11.5721474313047068
 20.1552021242838784 14.8262693230557385 11.6127608301572938
 21.6759146192026719 15.2890933498697326 11.3098269941249221
 21.6897147978164462 16.9115011127328678 11.0840536054795535
 22.9791155590853151 17.4875186832711442 10.3634127128886124
 23.0600569638148478 18.9618887632947235 10.9593837440144330
 24.3003760664141595 19.6943758976919661 10.4647528532873260
 24.2841180946326887 21.0462066404690979 11.2293450752323558
 25.7191588699182674 21.5956806647599535 11.2521420002318617
 25.7167766905731945 22.9719030506573958 10.5273401819407617
 26.9738968048742969 23.6584937496207885 11.0768847624593043
 27.0491876216068725 25.1042284405638370 10.5473017108644722
 28.3258874857427791 25.7328585794658942 11.1750716000206349
 28.3853763642779242 27.2159617204855806 10.7716906655044315
 29.7170454656704699 27.8784342987377052 11.2592669495496178
 29.7455140917220646 29.3705269823413389 10.7871685051557975
 31.0708771087459112 30.0681619683428991 11.2574125721329583
 31.1039665773863838 31.5540791787933408 10.7469363595714409
 32.4148308359887452 32.2731359745736768 11.2039297828072240
 32.4362195514539167 33.7565883496994843 10.6608247154258766
 33.7340824892144369 34.4812270127506224 11.1264158136835665
 33.7657434681832598 35.9576811508794307 10.5599692860232288
 35.0531624529498274 36.6735497773302299 11.0707595286694662
 35.1255155833622155 38.1560900947761397 10.5251305866675224
 36.4189820322605229 38.8427422732453422 11.1383009528602344
 36.5377369162969714 40.3531316271254568 10.7079810948634950
 37.8487787628423078 41.0540966834816743 11.2113431939755248
 37.9441722072420120 42.5927021019044361 10.7195852910295191
 39.2820418807324501 43.3265809653093825 11.1526164960136498
 39.5196490360658004 44.9893727579360103 10.7408042778770412
 40.7645563906817259 45.6164730884722545 11.3440132522064854
 40.9330647849638964 47.2173843539428901 10.8264851444192161
 42.1961476032423661 47.8782678802515775 11.3188197398994017
 42.3497300396035570 49.4536502732421184 10.6706799324063137
 43.6833628150757534 50.0478455433969813 11.1228492129787515
 44.0652657328687170 51.4150777826180061 10.3347363044600034
 21.0841252486841846 12.5927760150509354 10.7615629569883584
 22.6167221047452891 12.9477743268346632 11.1749486617888465
 22.8721584923653829 14.2742035867771815 10.5686392540772118
 24.1919656545668929 14.9171819116430910 11.0449335915496221
 24.2448511557974697 16.3451419778559561 10.3871078010825784
 25.4930337172580863 17.0339073170990112 10.9919346652535506
 25.6028771170507241 18.4838338811855074 10.4414479141823300
 26.8616082158157994 19.1244739871610427 11.0753262354104205
 26.9300818088585174 20.6011081465192873 10.6288383721452693
 28.2402671414131738 21.2755985911241545 11.1353893456005366
 28.2631970123721779 22.7675918439954224 10.6325699973705117
 29.5688515151294737 23.4472421909905435 11.1602934319250124
 29.6113802713516030 24.9268493560543192 10.6723265670539149
 30.9256551986522297 25.6123849919449356 11.1936178919401410
 30.9701722522830316 27.0971073518921770 10.7117004002697964
 32.2834603304436882 27.7973464732639819 11.2135396746057463
 32.3176039527812335 29.2836975074083590 10.7194473979693008
 33.6275287595621819 29.9945582434988545 11.2039558220245450
 33.6594422847861168 31.4790088158158810 10.6868659810050879
 34.9607890687934812 32.1932266239846001 11.1714645666233761
 34.9898031323937673 33.6753198945738532 10.6417086417436959
 36.2855898074998890 34.3865584440632261 11.1418460740212986
 36.3217269485088892 35.8674984904548708 10.6156159884406680
 37.6206498815981547 36.5700896176485912 11.1379145778610447
 37.6703729900611037 38.0563917291643250 10.6396891035473029
 38.9764254472955969 38.7573484891101927 11.1567507329757269
 39.0407613903610127 40.2521077616467338 10.6647598658543288
 40.3422135162604079 40.9561856849208397 11.1653449589829314
 40.4166520404817575 42.4579678044931015 10.6613028433538766
 41.7255871443160515 43.1416058832031766 11.2225722766565834
 41.8260898082799955 44.6590375447894488 10.7964852284979713
 43.1511731046821581 45.3405324622462587 11.2601997483002556
 43.2269373395615091 46.8599161363766257 10.7853635769337650
 44.5858132268184946 47.5384802842231977 11.1667681666493532
 44.6492208427115145 49.0136702825091106 10.6342285481447050
 25.4518169957671212 14.0252736066274739 10.6575712455696632
 26.7506030956322469 14.7229251388921902 11.1747617885103736
 26.8048711870882208 16.1684685003336526 10.6069223183464008
 28.1067553676696988 16.8558089478331503 11.1398319798091308
 28.1606261484880669 18.3144600337510219 10.6163244532750127
 29.4634033670913489 19.0073002880373103 11.1428246648321032
 29.5117932360047348 20.4820430652270034 10.6337482355126927
 30.8123203862504802 21.1795613735066830 11.1576719554581683
 30.8486516692178050 22.6602049444405189 10.6604419691916714
 32.1558527027393595 23.3584926345456552 11.1774826179682929
 32.1956500627896887 24.8389163620560893 10.6820728420655584
 33.5051728137742373 25.5419979398492245 11.1914014553561110
 33.5439522353564925 27.0245224327658953 10.6937670522246311
 34.8519704959052774 27.7312049332728385 11.1937622540983170
 34.8855956078085825 29.2139212355237206 10.6883642925762956
 36.1902987898876916 29.9222244764586023 11.1836431474942852
 36.2214374549472922 31.4049563604527329 10.6694143946737672
 37.5213700880458774 32.1131167122303935 11.1679408414798012
 37.5530939518973028 33.5957496298603715 10.6518066697500320
 38.8519851154863716 34.3027174918374911 11.1570966661639943
 38.8880478572733281 35.7850908576536924 10.6458805063077566
 40.1897489255710951 36.4907311115668591 11.1565058677339071
 40.2314346897625796 37.9748312993719850 10.6528969713622281
 41.5373428627439125 38.6805273832540522 11.1617954320387991
 41.5855487400611992 40.1675839717114087 10.6616310834960029
 42.8979142119274286 40.8701715834690162 11.1622641993350804
 42.9483513483306680 42.3604976000300297 10.6709390824975774
 44.2758086317537121 43.0616211486561369 11.1437648370269269
 44.3299198062650817 44.5479144149258559 10.6446916496267754
 29.3977527644290610 16.0541120185181398 10.6771416711107694
 30.7026932677543734 16.7556608396099556 11.1835750424364679
 30.7437200967914848 18.2227144468893769 10.6610420659098217
 32.0466503965312981 18.9267574346663885 11.1733483292126277
 32.0870432203446185 20.4030547078939968 10.6634087521602297
 33.3901757231660099 21.1070324730291965 11.1762202584797858
 33.4286815177112544 22.5861196374517412 10.6738954468145923
 34.7353371403894258 23.2912823159127953 11.1833196328183782
 34.7741666009733166 24.7708771903044571 10.6821036056520100
 36.0817509006841632 25.4773071445533077 11.1881879613822370
 36.1185717360199092 26.9562013883115874 10.6840636602582872
 37.4251244966666476 27.6609043976126969 11.1866736499113042
 37.4567617588666764 29.1412353606273733 10.6783023357854123
 38.7587587135786151 29.8462418649923400 11.1794119976425552
 38.7886197658759784 31.3289607831107126 10.6675015089276393
 40.0865766342244072 32.0361084651552588 11.1704002651999659
 40.1197974437133809 33.5197411762832402 10.6588710463335641
 41.4192654342462632 34.2278821154497450 11.1636515149369053
 41.4551969889761196 35.7114396900450473 10.6554327369522781
 42.7579596072772361 36.4199185034048085 11.1600808178388053
 42.7973390885502880 37.9030808686843415 10.6535425897626403
 44.1050773922758594 38.6127748440557284 11.1514421725918673
 44.1476365725281141 40.0948916474559809 10.6418177503548179
 33.3190253573602959 18.1478680450187824 10.6790635690176803
 34.6227409623772928 18.8549366231402153 11.1842946042112459
 34.6612585892146186 20.3337973855296958 10.6762191650500924
 35.9663815954156831 21.0414337185798850 11.1830607201893102
 36.0064854246491990 22.5208955286913906 10.6789467923601951
 37.3141854925928769 23.2293530243745892 11.1869667436330804
 37.3561357701783550 24.7070334044802813 10.6849177249278284
 38.6650823856615915 25.4097752102633478 11.1921662794874166
 38.7027775463467378 26.8831549226841275 10.6885705769161703
 40.0022614946882911 27.5834154121523447 11.1951625565167276
 40.0318249380717290 29.0586718670842927 10.6834726971652607
 41.3253317149501953 29.7650108893305720 11.1840394054372325
 41.3535393165538636 31.2492939918554953 10.6718909191841469
 42.6491749143130932 31.9610425241173246 11.1731654546187524
 42.6843343627922280 33.4469616102218055 10.6620083426880896
 43.9837902792962012 34.1586965387100321 11.1648985782167927
 44.0209974593056614 35.6426241220215800 10.6554018615644654
 37.2352132838306531 20.2705460209055204 10.6796461767051767
 38.5417479074349458 20.9813125393296005 11.1876746315095073
 38.5888983000183217 22.4633561260820365 10.6875281176824934
 39.8956279461740664 23.1707610482425892 11.1979481451007246
 39.9347580422358703 24.6409168129592118 10.6981593082118174
 41.2288132117755097 25.3421566282077393 11.1608771211364832
 41.2649169253667267 26.8097175398055505 10.7032178870041257
 42.5542743555951191 27.5116889198848789 11.1581817393804350
 42.5878175102949683 28.9827978589427637 10.6920288971383748
 43.8778432718856664 29.6888566486473451 11.1902081946170107
 43.9115534877073870 31.1738007239487729 10.6762428884051115
 41.1560963282225813 22.4041708347974406 10.7025266685591447
 42.4430357301759145 23.1053238910762850 11.1644830204453207
 42.4775474121868442 24.5770802256919154 10.7119628399439595
 43.7614925806568280 25.2830158408831132 11.2128232003230845
 43.8037703676402828 26.7474468755681833 10.7100231416709892
  0.3784944764707142 20.7149797749271336  8.5025210268590374
  0.3992703669970628 22.1958963942634036  8.9852999063406784
  0.4034079667189218 17.7612358656832079  9.0471311773112113
 25.5948592954639480 13.7625015087192164  9.1397739988126947
 26.8857893282364522 14.4745848081500288  8.6225834373362016
 29.4407132400529612 15.9751925918147553  9.1202035183099568
  1.2464676870124256 49.7737319596896555  8.5847951930964577
  1.1378642136675581 45.3678425113946702  8.6024558651340008
  1.1734714498466265 46.8482611239396647  9.0944005252176385
  2.4629114185897683 47.5500808665907257  8.6394366538948635
  2.4993169046809305 49.0143147398150063  9.0875952422241255
  3.7913780793758254 49.7196410644616691  8.6366221133168128
  3.8300251880105369 51.1918247554399244  9.0864803372472949
  5.1159670196324774 51.8918163691259196  8.6372403935303588
  1.0328950498723877 40.8968170163831104  8.6139753023419470
  1.0644455599392375 42.3843912248309636  9.1193161047778712
  2.3632955734730365 43.0951787208518766  8.6182064239611069
  2.3929035276086283 44.5918709043275427  9.1141457149950060
  3.6882640058975706 45.2948046199131795  8.6135789877182152
  3.7166277193563504 46.7797029724916769  9.1055894866155676
  5.0098632761811865 47.4798652794664520  8.6074101702991328
  5.0416007414895097 48.9553845947221689  9.1009945242101491
  6.3393771386138926 49.6561379273119528  8.6059330339564699
  6.3728971885504651 51.1273313411923311  9.1028987307364009
  7.6796913518221794 51.8299851029800323  8.6088429993514719
  7.7153165546301716 53.3046419288307760  9.1093349432100155
  9.0304813594028062 54.0163431884861893  8.6112727471360166
  0.9579002173103082 36.4498721190000268  8.5936886943000594
  0.9665552967283311 37.9262259728038345  9.1107524872783543
  2.2727884820593043 38.6314673335818952  8.6261538829618551
  2.2950676538880175 40.1181105354738889  9.1282040457341385
  3.5954458634458990 40.8254523393734132  8.6296775799967467
  3.6247637729442781 42.3154062772025057  9.1301169031481528
  4.9232190065830999 43.0216384369404992  8.6272181278300835
  4.9501483550300316 44.5127944561217461  9.1257274644349948
  6.2512075702606458 45.2145796618748221  8.6244529100372400
  6.2752896776048486 46.7021176869320058  9.1213754669999876
  7.5832552750078559 47.4008968108211093  8.6224921814511184
  7.6085602333168509 48.8845005631267711  9.1196115182455504
  8.9199398273894719 49.5835392145626130  8.6202319091406316
  8.9508888289096351 51.0629690231060778  9.1189917186535947
 10.2612564995303117 51.7668379624817661  8.6147833075995113
 10.2983603427386559 53.2475813870996788  9.1163547089324091
 11.6004806237234988 53.9579956172273043  8.6057073442507459
 11.6437763552153992 55.4422992050542973  9.1108675564771513
 12.9394469184782803 56.1615693564572354  8.5973813844644482
  0.9833764801379467 32.0050260819595991  8.4818939367701827
  0.9089380482492180 33.4772404516163036  9.0343227011988336
  2.2406218017654065 34.1838417733266908  8.6275633235428622
  2.2153854458657096 35.6625860616648112  9.1367937525610863
  3.5284794633725065 36.3592448596285323  8.6712026356020857
  3.5332714692220941 37.8513231626813322  9.1559097984840978
  4.8339843842181702 38.5535120798842996  8.6557723473297461
  4.8578530091150594 40.0472910577717585  9.1458117422098741
  6.1566643763786866 40.7544054939019560  8.6405217267470462
  6.1872784008998138 42.2441916535340027  9.1387473371067092
  7.4873880889939786 42.9511537657262750  8.6339668494858177
  7.5182395069932735 44.4375199484205083  9.1356100123880335
  8.8213610470377848 45.1425210268941370  8.6327197580860027
  8.8520582008548931 46.6256574808044135  9.1348372089064362
 10.1580085500960493 47.3289805904915113  8.6319047325691791
 10.1898290858629714 48.8104552189300236  9.1315509180374388
 11.4966153115535175 49.5132922518885934  8.6255410725452144
 11.5307778290047569 50.9953582051429422  9.1222983280346277
 12.8333749044395873 51.6998357898110044  8.6089372493340619
 12.8690132739753391 53.1854792009770989  9.1044950767515793
 14.1600699303341244 53.8943351024237884  8.5790131015909985
 14.2072868500607843 55.3838153676793894  9.0780227804008540
 15.4869799359559988 56.1101777176157555  8.5400258454895948
 15.5474323852626544 57.5948663900039577  9.0711234860147556
 16.8211149215046767 58.3495890055866226  8.5454903797353179
  1.0414722902459601 27.5237458219958313  8.4411402905557988
  0.9123733569296656 29.0009229158471946  8.9119361022182790
  2.2903170445440573 29.7233735739701643  8.6349008797344329
  2.1922195548807832 31.2068159466731281  9.1216151910240857
  3.5473440340227325 31.9162328131017041  8.7650588150161131
  3.4842753794512276 33.3968738617924501  9.2312747414544436
  4.8236182730188046 34.0909168204308770  8.7958061499354514
  4.7856632367119429 35.5843847367886852  9.2376491539784844
  6.0857225545731932 36.2770327595575779  8.7268588925453123
  6.0973653951506392 37.7799762080586348  9.1820024234143673
  7.3925182140706278 38.4894931098760296  8.6597038149797729
  7.4212087726322729 39.9800291018296861  9.1517378770222564
  8.7204304262352021 40.6902240854244681  8.6411124965397352
  8.7528558298561201 42.1760243828042647  9.1421856178908314
 10.0550376747852663 42.8855700773584729  8.6375375181532714
 10.0878319754492640 44.3682621271024331  9.1422164652355278
 11.3934185038319686 45.0757074591954705  8.6417101400314600
 11.4254684730302802 46.5569172645376170  9.1437825686860155
 12.7328341699289229 47.2611815061566318  8.6426073773455059
 12.7658710458563647 48.7431580068922230  9.1377228809410376
 14.0724200415910712 49.4458885334795610  8.6287689932871654
 14.1057053754981343 50.9298310468504738  9.1162417464034604
 15.4050419148557189 51.6331698119772469  8.5934062180338646
 15.4343460048928733 53.1222238999003693  9.0700956676773536
 16.7065558494679678 53.8342634094918111  8.5038734284429296
 16.7670007814258746 55.3308906901224304  8.9876885163381122
 18.0263116312572862 56.0978313668655275  8.4139033038081994
 18.1021055710751853 57.5629783880275170  8.9572018235241710
 19.3646459928084553 58.3530409246662813  8.4033025397557672
 19.4367849630397984 59.7926168744160762  9.0081585920611769
 20.6901922214321097 60.6062868709002132  8.4926534291445659
  1.5994587219081964 22.9422208831127925  8.3732999517705462
  1.6306469235845149 24.4039266180973407  8.9021421153440663
  2.5272092654793141 25.3656605907939188  8.2161938407115773
  2.2849679687482189 26.7504523003032304  9.0525357504269213
  3.6478715958743035 27.5468245644382463  8.7832314740315454
  3.4976213673282950 28.9647589167401414  9.3344074332417790
  4.9064917825637577 29.7466147669367409  8.9615103495169528
  4.7925922351182146 31.1712886408351260  9.4482229782124456
  6.1908663690692922 31.9124233386040217  8.9935981956877491
  6.1022384624095372 33.3523855176155095  9.4285310377574376
  7.4599960972448693 34.0650592891653616  8.8754542658335112
  7.3701063559763895 35.5330441645113808  9.2724878246985440
  8.6489109796306725 36.2466304453369403  8.6593174396746928
  8.6677772966816278 37.7244567473751218  9.1579292796027616
  9.9654275517127129 38.4408485371864330  8.6408676310850296
  9.9894773864837436 39.9196328236812619  9.1447213833107028
 11.2910296343634720 40.6333308314039954  8.6358229037259076
 11.3220451071954766 42.1135509576602161  9.1440757367327858
 12.6279484114247644 42.8266158576574654  8.6461761353511442
 12.6594347558412927 44.3048019925069028  9.1546097646031299
 13.9695449230975193 45.0137262021824682  8.6609417452010806
 13.9988955848259238 46.4934720087198698  9.1614011280489578
 15.3090110339169936 47.1987848632695588  8.6632045994159377
 15.3439808770658583 48.6828221382597306  9.1480798116195565
 16.6560833085720681 49.3956582711464804  8.6367729264005941
 16.6863198150624115 50.8786761608149334  9.1088529518102597
 17.9972948327975608 51.6017016195661427  8.5811238453804553
 18.0092988450873364 53.0880102455117253  8.9572666144620783
 19.2279540744242041 53.9226849087595355  8.2097739724038341
 19.3332818133741462 55.3346162167786630  8.7785330626680107
 20.5851940365886676 56.2041777957624475  8.0922298731994466
 20.6768864810455000 57.5849342497544114  8.7324468012304592
 21.9413626324077740 58.4795990306139544  8.1148382947949749
 22.0192042865719522 59.8413536620913220  8.8076687544079437
 23.2519987998777395 60.7860756660750852  8.2254709748028656
 23.3034296768849458 62.1262486619449135  9.0360554402563942
 24.4335004068906834 63.2206969493481878  8.6226697158412371
  0.3751557786896672 16.2759637214358044  8.5561012591773338
  1.6766297301117781 18.4548327401272161  8.4931816985552064
  1.6939828462083177 19.9503914888034046  8.9519827678505912
  2.9144278374822030 20.6489951672108987  8.3295521042699896
  2.9280013993930880 22.1857493713488019  8.7392868914569721
  4.0333287182034949 22.9936722965239504  8.0152143434180942
  3.9567175845289317 24.6742504925257400  7.8972180276220048
  5.2515805549620458 25.5234083828543241  8.3820461495040970
  5.0643294004139490 26.9189265762132059  9.2212103924955091
  6.3840387512317935 27.7248930671245972  8.7821765289323412
  6.3854203980946806 29.1424936405382944  9.4179809597247779
  7.6712509882993070 29.8676986746621864  8.8677663284921540
  7.6932723874220752 31.3066745424121322  9.4326689763092180
  8.9504394459395975 31.9802930263017515  8.7989753631720031
  8.9824531357033983 33.4203278279780065  9.2596143665401609
 10.1706677007938584 34.1043945800552777  8.5813203256169892
  9.9818715997239753 35.5264952379227807  9.0896372871453579
 11.2822371687583463 36.2470728545293497  8.5862751689156180
 11.2557215224995950 37.6834940132128793  9.1328584883775310
 12.5534959244054161 38.3943279891298914  8.6322733763916091
 12.5660987779957409 39.8666106787993897  9.1359872427416935
 13.8685455395044972 40.5874191826231225  8.6353541083328285
 13.8958037382866646 42.0578347558627215  9.1558005482920439
 15.2087576085010561 42.7757715551218780  8.6713937764724367
 15.2350537501509766 44.2473344634252683  9.1833956927375588
 16.5528775666470658 44.9603434144204499  8.7012386729425391
 16.5739727970572162 46.4403953494334800  9.1947998056024733
 17.8819988386131996 47.1605444275010868  8.6846259836755202
 17.9316657549624381 48.6569179020378968  9.1668878884115603
 19.2613364767576343 49.4680852976989627  8.7010163471840123
 19.2595754939465706 50.9239590248324063  9.2029049045456901
 20.6358817036288364 52.0348857792129138  9.0683599339506529
 20.6807337293930154 53.3229723632460306  8.2343742798176223
 21.9770918701901827 54.2860713688155414  8.8108572087476027
 22.0716274197085234 55.6289482685159697  8.1135845790888190
 23.3338598415297866 56.5223870958219408  8.7880938789083221
 23.4249581280142785 57.8888710254282728  8.1633183176993356
 24.6826250445726387 58.7944631316867685  8.9135766816589097
 24.6749861284494862 60.1337067118833417  8.1848575639610779
 25.8891630287800183 61.1596438634896700  8.4877913798770006
 25.6861560665431483 62.7152109046465753  9.2289791125137111
 26.9425795760406146 63.4746264818051387  8.7526847562388284
  0.2924583492340349 11.8330926263101279  8.5846302635608911
  0.3266044122939939 13.3183018215253490  9.0821534344907402
  1.6246485592435354 14.0205250964716601  8.5657059081758078
  1.6557379222720217 15.5068074444405894  9.0545024983934184
  2.9472974608077029 16.2055187027094831  8.5261658799609776
  2.9705102660553706 17.7006436244588521  8.9896938941391493
  4.2395982316167071 18.4003726433686801  8.4317698182402836
  4.2143632650275284 19.9230543398212774  8.8226987402486046
  5.3503524231144644 20.7961679604729994  8.2731223322725267
  5.2349926791419712 22.4514061096769915  8.7440266997342402
  6.5067666031953042 23.2191583207644534  8.3902271824572221
  6.4518048901049641 24.7084365452707715  8.9706042156994918
  7.7626224777905488 25.4566447271553216  8.5660340761021629
  7.7269549133009452 26.9264352553200652  9.1566425142711427
  9.0098430463106141 27.6572536079862275  8.6636288673928536
  9.0318392425874432 29.1059723858554840  9.2380925219355579
 10.3130511157845017 29.8083353863208345  8.6932125754531935
 10.3413276423333276 31.2649902720313513  9.2038886915047282
 11.6112646053444948 31.9424804854744941  8.6178646483850301
 11.6274954166884523 33.4015500690728899  9.0597799521730753
 12.8556224795943432 34.0959969408898971  8.5202694077672803
 12.6262139200409003 35.4920013049779541  9.0780330615253124
 13.9687848074399756 36.2172439163804967  8.6450018371165722
 13.8551719163227585 37.6416459509882699  9.1363154822495591
 15.1398418674752548 38.3698596730741812  8.5750460305519329
 15.1475716812569807 39.8207982343444087  9.1266792158869503
 16.4569810068651918 40.5550762952986474  8.6538534430880709
 16.4757400356596335 42.0122316321428286  9.1921444653046702
 17.8048182997460955 42.7432695491325561  8.7356146891142679
 17.8180954261123894 44.2076223070350594  9.2420219438146276
 19.1553765848369366 44.9429161963809207  8.7784493868159714
 19.1575735551590114 46.4263809496628923  9.2017986278310371
 20.4162687268172718 47.3420700550876674  8.5624471023202773
 20.4876269234301667 48.7281410139959092  9.2617302226446956
 21.8606654822854836 49.8619222651139395  9.2697157620579329
 21.8824537104503491 51.2574464051342247  8.6283820245666423
 23.2111178958743700 52.0998572504052007  9.0716099350858777
 23.2842248664235960 53.5277235732375374  8.4727271156884942
 24.5795833089056330 54.3242987027366411  9.0093365476273171
 24.6585787408308867 55.7735121482167600  8.4621244994023765
 25.9278793145762556 56.5479212896643801  9.0625862960977681
 25.9938480495102908 58.0286336271498371  8.5825658715065316
 27.2313310363809364 58.7884066102082912  9.2142286957977451
 27.2592304836591559 60.2905566599041762  8.7135647585075393
 28.4429118921523667 61.0607831940464223  9.4342056330826232
 28.1705568057365632 62.7439153471625346  9.4105105375072391
 29.4265551119853797 63.4183229632228205  8.8056836554273694
 29.4118109209573362 64.9898459535502440  9.1906959930098093
 30.6957629103089360 65.7101282458114895  8.6577863134869784
  0.1854178974101967  7.3764862929722952  8.5970968477969958
  0.2220435390500250  8.8648634474283465  9.1008295968725470
  1.5229760320673194  9.5750298812573451  8.5943789583790444
  1.5594641316878330 11.0612573276421298  9.0926005287887914
  2.8624361482116853 11.7677833750335097  8.5838302732797178
  2.8962324597531470 13.2537046905955069  9.0756425101260412
  4.1982244357815102 13.9588553726551243  8.5642138807858554
  4.2230696035084803 15.4494519922163143  9.0454969117259658
  5.5120719957336064 16.1654750137133938  8.5409743720084368
  5.5102756746908428 17.6719278995546922  9.0217740070302366
  6.6964746462938338 18.4787230353844762  8.5337858409974796
  6.5446305703094865 20.1447919080330919  8.9189635126420210
  7.7808148842681071 20.9069463779376044  8.4493732273158404
  7.7278753056849343 22.4390068326801320  8.9498568900003743
  9.0197417276976495 23.1773557434233979  8.5121880048260312
  9.0170189888551953 24.6661013001338461  9.0573475349548005
 10.3070965633388472 25.3915303743440504  8.5792066906446518
 10.3119989642216954 26.8669593403243674  9.1173118704160547
 11.6060729506498763 27.5798271286879384  8.6160998880187183
 11.6319514534863195 29.0471395822687199  9.1415113731241746
 12.9293698863695674 29.7499824719164856  8.6185188819385647
 12.9500687122964564 31.2194961133674695  9.1143210814116031
 14.2428626036373398 31.9301724752520499  8.6077348608858681
 14.2434637832339011 33.4141693521634409  9.0923555782103591
 15.5238273489200829 34.0736054257608316  8.5733292275194906
 15.4942558861214810 35.5141993200501815  9.0568140428722614
 16.6966870873866853 36.2193293306372937  8.4536050512727492
 16.4688092664653674 37.6305726556888587  9.0011330688749212
 17.7604448690066654 38.3735117639921626  8.5374185309358008
 17.7346145956442669 39.7937300439103652  9.1529266214806153
 19.0550222825241597 40.5460975924856228  8.7366359439886025
 19.0665042281261741 41.9965840462557267  9.2894018992540701
 20.4180455236516210 42.7877765070142075  8.9000060196678401
 20.3793924766789125 44.2487185596840646  9.4287142824256289
 21.7340489121022458 45.3757508275303891  9.3866346414171673
 21.8198349941819743 46.7150108323094031  8.5983124737882353
 23.0532493107843877 47.6631746929840574  9.2362464294640549
 23.0997328749047988 49.1160111815729792  8.7225275995951446
 24.4256378605327278 49.8914819485640706  9.1817566029489850
 24.4829992687026241 51.3383599756814419  8.6215274057870275
 25.7886702615118253 52.0956762719389843  9.1210601000522455
 25.8576371843999766 53.5592223667189273  8.5807993229766648
 27.1433596702654860 54.3023785245153050  9.1194910443714576
 27.2083681943903599 55.7859996331547308  8.6143749029741663
 28.4868581223896271 56.5100387801086583  9.1717495884125952
 28.5184968285394014 58.0209713175772990  8.7143996112202906
 29.7851607698039516 58.7457493893698341  9.2541720999171648
 29.7250958178299491 60.3284424174583194  8.8382345923298882
 31.0135453601903457 60.9725128120917788  9.3328654649565141
 30.7038988190578195 62.7235239431037641  9.3561703968012822
 31.9252051983965366 63.4329141252287698  8.7222920582748049
 31.9500507700674348 64.9635848607361055  9.1812938310655152
 33.2391065229783393 65.6816317580296811  8.6547936018122993
 33.2751564432933478 67.1827934024613143  9.1365761916982766
 34.5737038888612176 67.8948877840488620  8.6242699109212229
  0.0739673407920918  2.9363299744865521  8.6293802707163874
  0.1105652762044771  4.4021330809600476  9.0889222019462057
  1.4048291139372775  5.1097409485863521  8.5927932509527860
  1.4453590964633487  6.5959932888817194  9.1001999977040136
  2.7469893582537841  7.3156071317590197  8.6009610950948456
  2.7857453060358708  8.8030657434714978  9.1039322222392975
  4.0910081861519956  9.5153831106263862  8.6007380285810662
  4.1281666685549521 11.0007008828924810  9.0987254187532276
  5.4353533981498146 11.7105256318797331  8.5975521043042633
  5.4660345431538344 13.1970582427654595  9.0883136898103452
  6.7647446190042215 13.9102983726001526  8.5865198359484189
  6.7728591569080852 15.4090518204778952  9.0627461883566056
  8.0100554302189835 16.1467740248750076  8.5199323589332163
  7.9883529223216749 17.6922365044969183  8.9933779478084528
  9.0901834794536853 18.5888634729913953  8.4431900894676151
  8.9802666739133663 20.1393589666956423  9.0010194772393142
 10.2722600937375450 20.8841224633048199  8.5367722024607477
 10.2672928985416831 22.3959713482053715  9.0286777198375923
 11.5613947236152299 23.1172367462472437  8.5535986629787590
 11.5736805675366998 24.6068229637963007  9.0711092098350736
 12.8685491135050487 25.3232317764839507  8.5802511817521943
 12.8904223318155449 26.8025540818860222  9.0962124950148127
 14.1901533802716422 27.5153566111885226  8.5947742666771116
 14.2194159150246318 28.9890440760825392  9.1041788528877330
 15.5212780379977211 29.7013271376550669  8.6017238582664142
 15.5463915915861044 31.1737697354030274  9.1028790151178143
 16.8527154754223858 31.8748780843417165  8.6123107433474164
 16.8612362032299750 33.3464965312654584  9.0891038586148483
 18.1554701464424113 34.0249247202951324  8.5677551179983418
 18.1326796411892843 35.4918423164496915  8.9711331480718961
 19.3733496299424566 36.1938987267915451  8.4787985352407045
 19.0776231200872530 37.6123886251870942  9.0122546929332277
 20.3851406548942151 38.3852992682093657  8.6308500850156396
 20.3147366590125387 39.7870767590683911  9.2736787963664291
 21.6104871631414710 40.6106587194995399  8.8783168705109894
 21.6281635846828415 42.0419054390178601  9.5208218769438400
 22.9419007097642655 43.1012452170361797  9.5216419814691804
 22.9367887871174503 44.5735776664965897  8.9028669245307785
 24.2754127410586555 45.4237993527666220  9.3023575962355665
 24.3299587248653992 46.9084383269412726  8.7609433542818209
 25.6437894078209929 47.6568629276498612  9.2298338855996906
 25.6876528677071327 49.1224714293474705  8.6945293267405823
 26.9999453255374462 49.8547404138343424  9.1768412964656481
 27.0536400594990027 51.3239668427608038  8.6503057822360230
 28.3543365834229988 52.0495091521651361  9.1568842197384885
 28.4100545967364084 53.5301329380246358  8.6475554934853598
 29.7027751369437745 54.2461604879187504  9.1689593104258993
 29.7495625421120096 55.7401575940184202  8.6803177271651144
 31.0348953036809405 56.4486294994995603  9.2129017251064731
 31.0503675875846064 57.9556721483870589  8.7339751316745353
 32.3376842650053504 58.6884881216942063  9.2214478021085711
 32.1400529503241401 60.2250562472584434  8.5682732354096611
 33.3804982792139668 61.1320066955260941  8.5454762917309335
 33.2025228266639800 62.6888732941907989  9.1687799124190512
 34.4801888040757589 63.4231025484986262  8.6622289212740888
 34.5039338072725030 64.9217503276932746  9.1638700223590366
 35.7956970312519189 65.6353681622252907  8.6399462849621766
 35.8354957486938872 67.1274462354838732  9.1342094793011732
 37.1340981771700882 67.8397458411960486  8.6213979554876659
 37.1746686723444881 69.3269910115986221  9.1213990400262048
 38.4774242301975704 70.0389763901337830  8.6145574671077867
  0.0003723993688165 -0.0008666272813956  9.0778836035247839
  1.3003765858412064  0.7058892408135459  8.5832798941651767
  1.3312410946196807  2.1713962883274309  9.0827272792619418
  2.6179790537168199  2.8702186169383266  8.6331865096849381
  2.6580123523593064  4.3420781521834391  9.0947005386385182
  3.9592685139865074  5.0577401747840645  8.6015772734481022
  4.0052733847242354  6.5428291983668938  9.1079070824142274
  5.3124897260726049  7.2626136284985279  8.6092654093169845
  5.3529012930522688  8.7472124197966075  9.1139900231279221
  6.6624325357963512  9.4628037308883695  8.6175582943606823
  6.6985094308384685 10.9463293919686055  9.1206667471592073
  8.0091878634282967 11.6636307721561927  8.6331882577833312
  8.0303108858315113 13.1523675956087001  9.1208955289277505
  9.3256885489505255 13.8720215311990440  8.6292309743095803
  9.2785511216013212 15.3894597149957804  9.0454536403530881
 10.4220535575774633 16.2618183846577651  8.5444882511205442
 10.2966104906931406 17.8802541209937367  9.0079082445259431
 11.5731698652858643 18.5962913432769916  8.5805517177054700
 11.5230662626905875 20.1225297139116641  9.0680100787617537
 12.8109413297933727 20.8414136981033451  8.5889616084939568
 12.8189054525268151 22.3431816158196206  9.0731439105391285
 14.1126443099202827 23.0579651998186961  8.5792284127202993
 14.1365343731976747 24.5481968752187605  9.0799472820121849
 15.4339747649190269 25.2658187990109901  8.5820935785224766
 15.4646289818749292 26.7468882682427456  9.0904528012298940
 16.7684453300382970 27.4665422220515616  8.5965297914689938
 16.8003865191316493 28.9421796517779555  9.1077080342007299
 18.1129381286544273 29.6618784499613000  8.6285013263473438
 18.1389506152275715 31.1327062172120677  9.1403975569836824
 19.4606021667890161 31.8475258392028877  8.6795641426149786
 19.4673813027916545 33.3160206114953468  9.1639976177503026
 20.7932468816488267 34.0165868229056159  8.7241057982347403
 20.7797996786975467 35.4677337848755343  9.1269383322005169
 22.0027576579028015 36.2652412545428859  8.6747690340982953
 21.6584954881242595 37.6377877064253497  9.1633896945761002
 23.0417285707663630 38.5196320401278882  8.7744774291479732
 22.8885888891142457 39.8871363448519816  9.3432572519395567
 24.1249877614046255 40.8094651413544298  8.6044959571403172
 24.1891622768512562 42.4406478543703187  8.7954601602655629
 25.5079061886506686 43.1862201522264613  9.2803039472503652
 25.5285038601693444 44.6802163589122969  8.7636541221169839
 26.8575070020001370 45.4191538544288065  9.2044401563087384
 26.8953698660815981 46.8945848976391062  8.7004998603334425
 28.2147663361731915 47.6095679282582012  9.1795879009757222
 28.2588898832696707 49.0849973683766336  8.6730963192057722
 29.5683338450940170 49.7969687226216706  9.1681035825941528
 29.6149012711300514 51.2763882453327469  8.6625678549814467
 30.9173191245757515 51.9864013327472207  9.1659883886942151
 30.9609160217787043 53.4731169287869719  8.6682163345957157
 32.2591154548169854 54.1809268867616680  9.1752451274707010
 32.2901346368343809 55.6797391273901283  8.6921107348005151
 33.5853190944474562 56.3895679191345138  9.1937773956411313
 33.5827778430581247 57.9210612637707598  8.7324607496192623
 34.8398155018126801 58.6200782447576145  9.3026161488264183
 34.5350232393679732 60.3829634004930185  9.2702781022758263
 35.7940466712380925 61.0660576464770770  8.7207335045250627
 35.7456836456107609 62.6324746586836696  9.1650482609774127
 37.0252237278173055 63.3600977989878089  8.6373248089086427
 37.0589344314391838 64.8621562730594832  9.1371762626191817
 38.3549665444799217 65.5809615204996135  8.6201355962359560
 38.3972088029185201 67.0692050622871960  9.1237227584129865
 39.6987188027449847 67.7838203582204955  8.6142985545671955
 39.7417169486204287 69.2695743523895828  9.1186713859741300
 41.0465610420039937 69.9832783273700727  8.6106514164471104
 41.0951809273312705 71.4696430557206241  9.1100900330929786
 42.3986142530076222 72.1831033827075856  8.5996699870239208
  3.8704035403341597  2.1058002140319076  9.0912289069482775
  5.1709580358239817  2.8135389281883572  8.5989600969058557
  5.2151932520780182  4.2895799370711671  9.1066175705061543
  6.5276730313197282  5.0109543491667239  8.6110542389767755
  6.5724515236309093  6.4942336764612980  9.1186723562028575
  7.8808785697859154  7.2128932532474472  8.6206642352875384
  7.9227752344835194  8.6955584067900418  9.1326379526677268
  9.2341951445742954  9.4208867373640270  8.6489234879613619
  9.2681199402084715 10.9019691782870769  9.1702825691350860
 10.5821492555763736 11.6416963790306358  8.7257799049232663
 10.5765029815811555 13.1279657807712979  9.2624421478701358
 11.8082787618025371 13.9377518283567738  8.8763356372713762
 11.5989528442026444 15.5820523190842675  9.2450134300941293
 12.8672925844440957 16.2725845703776884  8.7979503682746980
 12.7849835869710464 17.8397636904283594  9.1896690623235138
 14.0655261645094516 18.5423679013889959  8.6917377846720445
 14.0595545113812577 20.0704519717473566  9.1307853543207926
 15.3462491931488465 20.7815697570575537  8.6159370025104778
 15.3728308819225425 22.2868337507435612  9.0918734485395909
 16.6652077699962646 23.0080450419951177  8.5828718934150530
 16.6996306655432249 24.4967501028500720  9.0818988670027974
 17.9984342335654972 25.2217417453751942  8.5821997205318308
 18.0358980694345021 26.7009058800667134  9.0972888715356373
 19.3429321521659503 27.4322751315217559  8.6142655724218002
 19.3798592879756200 28.9041913039621647  9.1404261133585862
 20.6993283848502223 29.6464107164068871  8.6832911546888489
 20.7258374258082760 31.1105996925903519  9.2256164371399016
 22.0592974997952851 31.8750610286164324  8.8264086850037629
 22.0577375512863512 33.3429240613622895  9.3955978621721083
 23.3749762137331025 34.1987145645798023  9.1025293910156329
 23.3583303407160479 35.8438191922575271  9.4628819308608882
 24.6086745404236140 36.5514261293047653  8.8796229313002275
 24.5707357781437068 38.1082276027656235  9.2173953100573360
 25.7469731859136211 38.7213921821982439  8.3793242238051882
 25.6169368684195717 40.2797025519338021  8.3097953499656789
 26.7761553473888156 40.9767676503727856  9.0094968377806470
 26.7800616747970217 42.4907132068316429  8.6512105628170382
 28.0997281509146895 43.1858476410158119  9.1091357771258163
 28.1177746693195836 44.6718901673448769  8.6456857014775199
 29.4399661615747803 45.3660448118414550  9.1342489334271928
 29.4754395870223860 46.8479401315699135  8.6545310041723322
 30.7889594666836572 47.5462772013448216  9.1523390939441995
 30.8291196068527036 49.0265807909586684  8.6582102282208933
 32.1363745259815090 49.7293869603717695  9.1572282420572346
 32.1747228966036758 51.2117474618588915  8.6568686313474732
 33.4787430718204462 51.9169318652797429  9.1507903706643745
 33.5099833808131677 53.4063027299593145  8.6535044445204523
 34.8122791006159815 54.1136198548267728  9.1393179939575191
 34.8247126158014098 55.6195595023786211  8.6524732358737513
 36.1173821690187609 56.3342626206276620  9.1339222768893116
 36.0523189090416167 57.8984948674989326  8.6922061519039637
 37.3441532281920558 58.5733313928297363  9.1640403209552108
 37.0491139670935326 60.3445151349700666  9.2503165472030542
 38.2700876220135484 61.0755156187415906  8.6225466410552922
 38.2909548237991046 62.5926534302704809  9.1252916650433118
 39.5801170047593303 63.3243217602695054  8.6040003224220083
 39.6199007695026424 64.8107799459481981  9.1155453633236156
 40.9212192983294756 65.5289328602252539  8.6062167320757581
 40.9624315206869127 67.0132758139919815  9.1155145727422990
 42.2655099453762446 67.7279831536259564  8.6094301987153408
 42.3103599207642489 69.2163940241000972  9.1127004259087965
 43.6110803538928451 69.9342475073093652  8.6054518526694199
 43.6545627421097393 71.4179350752371818  9.0994588145506778
 44.9459383395232734 72.1240973151335822  8.6367409827358230
 44.9812295637906630 73.5881442894188211  9.0856552545366096
  7.7911446623680973  4.2433344389406997  9.1165880541966811
  9.0965291220482634  4.9600076212272839  8.6128286378307273
  9.1418634259019669  6.4428545864830609  9.1255731799982982
 10.4455306497215563  7.1685467652848427  8.6294579973966030
 10.4902467378240587  8.6487790721184030  9.1600919317475356
 11.7938746716029410  9.3917085092368939  8.6894301599634751
 11.8271052656339606 10.8662529368282552  9.2553803220192243
 13.1095681662843440 11.6430724989706231  8.8316886893037481
 13.0961236500255538 13.1228731270529728  9.4545332681232885
 14.3059140161957608 13.9150306438659701  9.0343463189566862
 14.0695467808081123 15.5262631756087970  9.4560616600368839
 15.3324332866900672 16.2222032945664196  8.9035799204635175
 15.3060165768961305 17.7876217580308094  9.2582886361251919
 16.5753422023302370 18.4890581018914091  8.6911961470357184
 16.6041677019896952 20.0187016499847026  9.1324057896187423
 17.8855845837172822 20.7500727838321488  8.5984540012297437
 17.9287919703938989 22.2442181982527174  9.0815305696429593
 19.2232443604068450 22.9746947240391286  8.5628737198487492
 19.2631266985264951 24.4555232610780351  9.0740117084786576
 20.5603321599250037 25.1944240428176727  8.5779759343669966
 20.6046493131012696 26.6663891488581726  9.1102439879415442
 21.9095141037859911 27.4260928184791517  8.6410442558930605
 21.9523055631104498 28.8848170858599005  9.1938260524813007
 23.2734968887191442 29.6650273807981648  8.7668504318039417
 23.2948315627580200 31.1178294098199508  9.3525511536094754
 24.5849593744123780 31.9786729660272648  8.9586229620137381
 24.6355410827503363 33.4278525874098094  9.6023677576753794
 25.8853699804844766 34.3470336005623054  9.0499073765858675
 25.9325421954128466 35.9169611601106027  9.3923444421205762
 27.1766066091848195 36.5957971582783514  8.6756655095918269
 27.1853982817391433 38.1440872955754386  8.9478714187002701
 28.3923324095669010 38.7513210772536638  8.2170898451851375
 28.1759933101401501 40.3335515816337704  8.2474906769093579
 29.4134815902918909 40.9517252953448008  8.8453881253705600
 29.3965232317859702 42.4706806089336482  8.5020495872654696
 30.6982794865561317 43.1354673468714509  9.0273609352070103
 30.7188462008865280 44.6228527650250513  8.5877088855485741
 32.0267984001042194 45.3016172243088633  9.1093215499052000
 32.0596327411160615 46.7836525977806019  8.6342481667802335
 33.3641995304133943 47.4762325404401011  9.1449423217241623
 33.3996336726955292 48.9556875988349347  8.6461440994071772
 34.7054138456584838 49.6570354966551335  9.1406803006938411
 34.7330630934758062 51.1380115361783396  8.6328655150500975
 36.0389201406818245 51.8438939112482799  9.1097044482190945
 36.0555408442275649 53.3340394742478949  8.6026509258415960
 37.3620276779952150 54.0447949909381791  9.0650364454145542
 37.3502764865055639 55.5552365216608166  8.5728149420116129
 38.6503962241415095 56.2972866861343064  9.0051935468340805
 38.4517530547117303 57.8594266611581745  8.3708557365514373
 39.6951976690471540 58.7782558855584156  8.3302077236876020
 39.5479611198631602 60.3204174899168848  9.0259275665380923
 40.8271957568308892 61.0792134035239229  8.5383512645831523
 40.8512233783921914 62.5557706236838769  9.0859178051001983
 42.1521985743098782 63.2786287871658359  8.5840785126869310
 42.1873652891956255 64.7567560318766340  9.1038511261226525
 43.4908913776162649 65.4716907453749002  8.6038559058878352
 43.5275439157275059 66.9561319860592761  9.1135544905888519
 44.8286120273177744 67.6709104115833355  8.6109444822333909
 44.8689575568145074 69.1661240447549091  9.1090475458055060
 11.7064585072694065  6.3908594295787360  9.1185639592299630
 12.9979577489566083  7.1272858924207974  8.6142465634623004
 13.0494540298956032  8.6043765593564423  9.1691394514068332
 14.3335991904408218  9.3658869269378560  8.6896452280006180
 14.3731976697435417 10.8323184703650064  9.2957172575889047
 15.6351027083880219 11.6157616301020905  8.8548851320506525
 15.6374025903971052 13.0768609053577851  9.5217214470136113
 16.8219259356723114 13.8774525267906697  9.0466088943093848
 16.5949027898143378 15.4755932575290842  9.4805080655479479
 17.8273931814687678 16.1749751737960672  8.8532746611971298
 17.8430499428033329 17.7479119703949486  9.2041031291940048
 19.0997825323213881 18.5106872772782154  8.6144669087751193
 19.1539760524539915 19.9985924281076919  9.0901145587062988
 20.4432319851327264 20.7381047555488465  8.5437890847463365
 20.4938830217251642 22.2153731138776998  9.0444767011916660
 21.7971187561181701 22.9664901402888830  8.5412828350428072
 21.8304857634466671 24.4374753541233218  9.0528891141498047
 23.1191758244369900 25.2281178521271521  8.5389018991916927
 23.1707619617324454 26.6654202083809473  9.1158001293503297
 24.4762256269620018 27.4819085629861917  8.6571918176165958
 24.5395667573103609 28.8996728463346493  9.2440548541395700
 25.8204025920991675 29.8165511564549135  8.7491323901240783
 25.8271669004063646 31.2073942912585451  9.4033133655775405
 27.1309981148105344 32.1773956174105678  8.9671245186686495
 27.1968872252519347 33.7210502747987562  9.4792281727359295
 28.4614986362806981 34.4288708638779610  8.7852638550198048
 28.5252038571801876 35.9464236615519255  9.1550130116915867
 29.7955079517789585 36.6026854677166398  8.5019123254127820
 29.8136848376325609 38.1242714931113298  8.8131774751721839
 31.0456294111145930 38.7312405636256827  8.1422028290052282
 30.8070931834490551 40.3046695066462490  8.1546575784024853
 32.0286647127844830 40.9021648140590486  8.8281793007124598
 32.0275500931031161 42.4109161593469253  8.4782135585949590
 33.3091620528978467 43.0681016065877955  9.0541273656665631
 33.3266993747239724 44.5488316742964301  8.5954980029627919
 34.6156436930000382 45.2277672887769313  9.1333527074723140
 34.6433660921205444 46.7068766099657537  8.6422538957557276
 35.9420630211355530 47.4046912684266957  9.1529086970857545
 35.9718437001783116 48.8762174430025667  8.6315262558596704
 37.2809738791372851 49.5803107598559691  9.1083873345517397
 37.2883445843930019 51.0575473729406184  8.5811647228907226
 38.5962109996344225 51.7695692589332666  9.0309419311376047
 38.5922683192228462 53.2640482583630472  8.4993091305017678
 39.9001534284287089 53.9959826311548170  8.9143385979503211
 39.8466164228893831 55.5412688222257245  8.4380173277171640
 41.1311266851399253 56.2863187083925922  8.9022301811168241
 40.8704411439979935 58.0215690074613590  8.9845266075522865
 42.1251180080604826 58.7946738537940519  8.4593431252986448
 42.0957806582363219 60.2931832544346094  9.0104497000287349
 43.4011233080976595 61.0275961149015203  8.5402056147846448
 43.4190418694418625 62.5004814630771577  9.0781707801977642
 44.7271119557757046 63.2147493516192043  8.5936623376959691
 44.7544005910781095 64.6950809606543515  9.1092538581256974
 15.6010975133743219  8.5643366903440743  9.1228694323206234
 16.8686531115986611  9.3413786542284019  8.6229909275354490
 16.9166217694285592 10.7956060507885621  9.2564113772749810
 18.1598693368040216 11.5956924871808997  8.7868301704900826
 18.1904212349589542 13.0525024978444311  9.4570763586313547
 19.3449458446410389 13.8863823890026623  8.9133557880770589
 19.1787706960642090 15.4429386938766591  9.3212073343724455
 20.2944503067479651 16.2991718621412502  8.4759554840270042
 20.3972066386840396 17.7558425823571078  9.0389974604484262
 21.6642893195813677 18.5370418352118662  8.4558206813813435
 21.7269455069389892 19.9918676724983762  8.9955602785281794
 23.0264126427751705 20.7926016486988239  8.4841161592085896
 23.0902673489485721 22.2232872361823972  9.0123992253622731
 24.3762843256695589 23.0772047683522210  8.4346051815866225
 24.3860336520039560 24.4861664449966483  8.9694395912775864
 25.7310031332922016 25.3808284258133199  8.4803844530793953
 25.7245933237231306 26.7558127179763865  9.1304620932154830
 27.0812530231720849 27.7382746280309398  8.7519077219215848
 27.1284830395649053 29.2525419390264503  9.2642059339200280
 28.4138551369970571 30.0494099129019112  8.7670248998059250
 28.4577013302046709 31.5332603762416497  9.3443845235516196
 29.7354906324243053 32.2570003425035807  8.7471320963984862
 29.7942018889782965 33.7385519137291041  9.2186902302361879
 31.0850940099054647 34.4224139768819200  8.6111911545899797
 31.1307741289893691 35.9188327903728464  9.0250313526044099
 32.4300537504079998 36.5821902189385852  8.4528922068720043
 32.4425662377267017 38.0941325954520522  8.8084724486122941
 33.7106817498110090 38.7052254477696849  8.2159994295485408
 33.5028804831302480 40.2613398428703633  8.2335183676349768
 34.6529174714044075 40.8728212740031296  9.0459410318401439
 34.6963530285186437 42.3371572872362876  8.5950344556955969
 35.9245431257069185 43.0212855114539465  9.2122045385967954
 35.9400218498579989 44.4641323425335244  8.6550374884342993
 37.2286151522963493 45.1541874064362077  9.1391886804518876
 37.2311032622750773 46.6377746986702917  8.6550303037424818
 38.5480625681370981 47.3349608425329649  9.1548792382175641
 38.5667814829179250 48.7909938314480627  8.6078881827757705
 39.8775618784360688 49.5032964190426412  9.0747274022402067
 39.8366135668045231 50.9783241764981767  8.4902574710309704
 41.1518744876203613 51.7122407636729804  8.8628716699348651
 41.1149577574649285 53.2317401884687129  8.3263008854180374
 42.4309207694780994 54.0136653169798961  8.6548193351314868
 42.2438183873905118 55.6325834360846372  8.1051351259500368
 43.5163427588902536 56.5645808449911627  8.1413677279573538
 43.3779712475857551 58.0370397464405841  8.8899042752897621
 44.6851541092951621 58.7878057309701063  8.4896985887844583
 44.6670300403971936 60.2487989503841774  9.0506818182107764
 19.4536777135875703 10.7765030349130484  9.1480333401384613
 20.6675502829306836 11.6198139770740898  8.6561388694420902
 20.7075626984092587 13.1073727421266888  9.2248378156460298
 21.7779831147469132 14.0171641605093811  8.3595276769757998
 21.6769328758220716 15.6023525492540429  8.0153534624342289
 23.0950624775666711 16.5021090848040366  8.1234905677316451
 22.9653632548648012 17.8253084861472111  8.8274438949493295
 24.3376457026117059 18.7390877231362047  8.3429669108253393
 24.3059266567620078 20.1091876843632491  8.9662456286860177
 25.6712842183565861 21.0613007443449725  8.5617727344521324
 25.7069177777667157 22.5799622296445754  8.9932502232142841
 27.0389416500885211 23.3600340243638769  8.5077908304678171
 27.0611621408879337 24.8456467835994488  9.0037329460096043
 28.3628446452793952 25.6354938406453421  8.5884750072338552
 28.3780091690100846 27.0970653317828472  9.1960886999183842
 29.6676819172146722 27.8528658761364412  8.6868396998632988
 29.7064561736610422 29.3202264415008500  9.2233419221830779
 30.9999326282245029 30.0383216530006649  8.6873691204577455
 31.0451915764278681 31.5145362939204183  9.1925132237806224
 32.3443470284284658 32.2119173702593855  8.6364711953339750
 32.3914517571820255 33.6967070355882754  9.1057301001600859
 33.7015590582913660 34.3850888857517276  8.5589709233709055
 33.7385532749074386 35.8803775362199957  9.0063926502179950
 35.0602833769246445 36.5732314984697595  8.5031438941611963
 35.0586342205944419 38.0743583023157086  8.9491521053462204
 36.3483540834209577 38.8031607711598525  8.5521865333255107
 36.3119220517762571 40.2386992212125705  9.1629044225107865
 37.5654512158562213 40.9627035035277700  8.6395325720517828
 37.5986280020473842 42.3996097405675982  9.1836982835538503
 38.8218242263641571 43.0235461345959465  8.4588952237443849
 38.6529850039158163 44.5510371198196538  8.4793722050275164
 39.8620290041106315 45.1618290677285188  9.2256802704221119
 39.9260480664467110 46.5974833135949567  8.7164847206751865
 41.1841323165933204 47.3015617589321877  9.3002671168422157
 41.2249405292611399 48.7010221371684722  8.6538382180724209
 42.5159316883494682 49.4880813375552506  9.1172534133359981
 42.3442314079811482 50.9147640419148857  8.2265395532699603
 43.6618468538218352 51.7568484021318156  7.8801838567292526
 43.5377715404359620 53.4027869946864229  7.8208566932111863
 44.8508060314467087 54.2763316060566581  8.0821280217921139
 44.6652937193468276 55.7669207208826450  8.7662587359047155
 23.0579390807776150 13.7355592073898887  9.0479807463602580
 24.3441750570367290 14.4219109258098985  8.5114833841089030
 24.3429533466388861 15.9534278118268897  8.8563665380850765
 25.6800641317517062 16.7006085665687003  8.4290596316586743
 25.6610053367357196 18.1951294798813166  8.9001625949586511
 26.9660217045813297 18.9707599133177922  8.4905435087006644
 26.9639072081569715 20.4431718716948083  9.0582593998317105
 28.2687414834811079 21.1903723460184636  8.5648985351203510
 28.2949083022835701 22.6668616100694180  9.0664288105545303
 29.6003329031966835 23.4041663395503825  8.5863860144358508
 29.6242772449717684 24.8839668685142250  9.1047044501140295
 30.9269002787549852 25.6106411566063628  8.6223421872018982
 30.9534311160793223 27.0865762722673153  9.1527229099970100
 32.2538504513659632 27.7995234312928297  8.6432114576664745
 32.2904071477675743 29.2744844626531346  9.1593437021904123
 33.5923041076435354 29.9768571694194357  8.6330363433763235
 33.6333984130071073 31.4562279146083519  9.1275910752692653
 34.9393541277700166 32.1541397949754924  8.6009336754467114
 34.9792638116851720 33.6394384723610429  9.0828476117890773
 36.2889111277466512 34.3406389826930436  8.5722784768644100
 36.3221132164863505 35.8302431382618138  9.0586609486568008
 37.6227800152030696 36.5452351629068843  8.5668797985024092
 37.6385298716924979 38.0341393584411094  9.0721968043340180
 38.9345811563803323 38.7443522293733267  8.5826553112677839
 38.9405794412100477 40.2227609226683072  9.0979023267131023
 40.2562142790709174 40.9218953461194062  8.5942034354671790
 40.2581528371156878 42.4008734540116166  9.0899351512553732
 41.5404290887290557 43.1285564623555118  8.6382684136241057
 41.5414797569101211 44.5496342880820606  9.2530373921972657
 42.7859799517338217 45.2853245612248259  8.6855286246463557
 42.8397184907676944 46.7025209803064030  9.2620244326650898
 44.0408635378791615 47.4231476453557548  8.6024301906699030
 44.0556372364956061 48.8571187096097574  9.1295354612872188
 45.0894862457240890 49.6655040099351055  8.4520204593369215
 44.7513674079039987 51.2219134850601066  8.7945046317159452
 26.8982192450653663 15.9989530825270361  9.0544541665366296
 28.1986648084918698 16.7251554966561571  8.5723186485949903
 28.2090225027605186 18.2283865165151688  9.0515310383684664
 29.5138515965417980 18.9512525713094604  8.5729662261635546
 29.5334332746212489 20.4391422585181495  9.0770461159866578
 30.8368960840428130 21.1594501021154215  8.5875806677103270
 30.8640455011804811 22.6426404439895457  9.0992475647774107
 32.1675502436779936 23.3577250161864178  8.6061810590851575
 32.1976895130738683 24.8375187162694822  9.1214272237623071
 33.5005915476574145 25.5475623750845919  8.6202525933525553
 33.5330930446869644 27.0250728059378744  9.1328404150566396
 34.8372629351182468 27.7296060511714089  8.6223701024818187
 34.8724471053906910 29.2075730628471995  9.1270382413643478
 36.1774779276342642 29.9083822278229903  8.6119101731176251
 36.2136890767202289 31.3899255009682001  9.1084125032114809
 37.5183427907122962 32.0922285748995435  8.5967317721555503
 37.5537376007747952 33.5777101222481704  9.0914448625290056
 38.8555831485226122 34.2860402951103325  8.5859674908352606
 38.8874777140456303 35.7746310618019123  9.0851660880440530
 40.1867553857276434 36.4827971260456394  8.5851186001311657
 40.2136009279205311 37.9688543864221018  9.0916782581378737
 41.5136564586873718 38.6737876189280172  8.5915078055920731
 41.5400760516348271 40.1540961125838862  9.1044230781047233
 42.8303267569141184 40.8642976992252045  8.5920291247897786
 42.8524084764838591 42.3445484435838040  9.1051951500316584
 44.1283995173611956 43.0470189334744120  8.5746113768890826
 44.1453726211973247 44.5228912815191080  9.0845984801697490
 30.7382571450211266 16.6903291259697362  8.6137701292351032
 30.7671424642917302 18.1879044261271368  9.1016195976720287
 32.0683268770065411 18.9013142736846014  8.6024572801129491
 32.0986160934290439 20.3894268137046240  9.1028822542329344
 33.4016737787827438 21.1011529850636279  8.6050471771367540
 33.4340729434306994 22.5838181236363269  9.1127180687845382
 34.7385314327831338 23.2930216644021435  8.6119963190143007
 34.7729006327381001 24.7722239207954900  9.1207624930132098
 36.0780850735517120 25.4783991253655593  8.6146246463375906
 36.1130798171781180 26.9552365860655136  9.1213580750866736
 37.4190169328205542 27.6565970260462564  8.6113412446561828
 37.4520156399080264 29.1355945133369438  9.1140902499616292
 38.7551740878250541 29.8367184117824493  8.6041065190254216
 38.7873734953625871 31.3201841376696848  9.1049357363802415
 40.0867522773373324 32.0253478683894670  8.5968236982785591
 40.1206187815971802 33.5121414866945457  9.0975473287714568
 41.4197162153333522 34.2193058690605554  8.5922769578261011
 41.4525968630740209 35.7061150338654443  9.0942136898169679
 42.7513526920652396 36.4124570293733498  8.5888252832835459
 42.7837173135829261 37.8965948284944574  9.0928927812158697
 44.0794949232078821 38.6019348698452660  8.5804423838730663
 44.1109219596713729 40.0862305639654650  9.0820782859109688
 33.3277004402231043 18.1319316935988084  9.1182815676167088
 34.6292152030600491 18.8430432580696561  8.6130505149358765
 34.6655936963616327 20.3287273988433981  9.1149858502307364
 35.9698170031954731 21.0388355614880993  8.6117461334253473
 36.0077805501523827 22.5203588425056083  9.1168148816551273
 37.3144709027968631 23.2293011715218576  8.6105615013842378
 37.3548840890748721 24.7068409807306431  9.1141907620124982
 38.6631852286688584 25.4081245604514301  8.6049799031110954
 38.7006109112602488 26.8809766065539897  9.1068835567303079
 40.0002432631096667 27.5787971057530044  8.5957412570956446
 40.0305685526284947 29.0543261211927017  9.1018131793789347
 41.3247442439711605 29.7582559935324191  8.5968377074839299
 41.3536125579517275 31.2440951324190728  9.1011809726716368
 42.6496486628553626 31.9535432595214424  8.5967265051883910
 42.6843083601200988 33.4418162655462652  9.0998625844934651
 43.9829473212163364 34.1502153689483521  8.5935471450847860
 44.0176709695566899 35.6365508984400279  9.0941474767187689
 37.2362176259852831 20.2687010006756445  9.1176989068969245
 38.5423683203914109 20.9801727927809090  8.6096704338609591
 38.5890490407112807 22.4628277689587357  9.1097208563659891
 39.8956763551338582 23.1697166186844932  8.5990762643035463
 39.9342742083011331 24.6398064937075496  9.0981381311235783
 41.2284832427727110 25.3396657912393337  8.6337063778038399
 41.2644255616692917 26.8073218235996649  9.0883093689054242
 42.5542579725739358 27.5076427433421102  8.6309977262013717
 42.5878702823851540 28.9793752260463826  9.0920172770601191
 43.8786092586953629 29.6832017838110431  8.5913101186639871
 43.9122061924229001 31.1697342967143705  9.0984369200226602
 41.1564771041721613 22.4034713191867851  9.0948183595237246
 42.4439172480252012 23.1037044882721077  8.6328619888208884
 42.4777935961700948 24.5756064187166245  9.0835845729213514
 43.7623318048516623 25.2800946660150316  8.5820316222902608
 43.8041471059757299 26.7451462582292230  9.0815940094811278
  0.4785997345731545 31.9358564570544168 12.3809464799457896
  0.1788038213834632 27.6223916536336347 12.2887933435952288
 17.0526926352562711  8.9756550308568102 12.5447924833976234
 20.9259012832645546 10.9183271530968469 12.5060834852420690
  1.2431435629843643 49.7620674863105066 12.6016466604863222
  1.1304363668885911 45.3705874410106134 12.5832989482990634
  1.0054536899581343 40.8937371296977190 12.5644748014316079
  2.3521397273189035 43.0964538391331615 12.5727908937672730
  3.6802013038606263 45.3044544495808594 12.5821269914742899
  5.0013234288585595 47.4894649584565798 12.5881968972448313
  6.3305265528888546 49.6632007860136468 12.5867188598587418
  7.6752845016762317 51.8337573034660650 12.5773763971381207
  9.0387484546709693 54.0151734079698187 12.5658349735076147
  0.8250055308310190 36.4197361590841950 12.5386192993465961
  2.2047041147618036 38.6424057977659743 12.5749965249068349
  3.5681905543227619 40.8400226494351060 12.5795898248519809
  4.9140455191602674 43.0273911122258212 12.5797631768949163
  6.2468745938500376 45.2168199869536522 12.5808076012641870
  7.5850680203569363 47.4031718499102155 12.5804706384704819
  8.9220248365517332 49.5928054435105210 12.5765811667111134
 10.2721291948520435 51.7768198529430848 12.5673430503785450
 11.6242995322073455 53.9583995272779546 12.5557300874082820
 12.9870975479249857 56.1212303411260720 12.5466302914292012
  1.9370576185226249 34.1765231507132228 12.5595961555694728
  3.3719149014018033 36.4183579044993877 12.6149896337445817
  4.7809687548071613 38.6077326231426170 12.6032285545013494
  6.1430196126547587 40.7753085753285660 12.5903680420704127
  7.4801501891263342 42.9585597330586637 12.5842875871516569
  8.8124622334165608 45.1473510256372066 12.5831110446765972
 10.1483449283968969 47.3397525345676371 12.5822650191289913
 11.4934552573165991 49.5324958005304836 12.5758276043229102
 12.8504475896728128 51.7234541708252564 12.5588400079642390
 14.2227501298935000 53.9032799452967026 12.5271475359582070
 15.6123532777683138 56.0409231163634729 12.4854486582720838
 16.9820665533718582 58.1428493924280048 12.4828688765947362
  1.5347740375517449 29.7422939151381165 12.4799716230628661
  2.9814999238804676 31.9497231855391171 12.6574221560181499
  4.4444126445356549 34.2084766111142216 12.7114488603436069
  5.9655565800560764 36.4384567899256524 12.6670574313292921
  7.3849219142312448 38.5246603705486095 12.6094351173419650
  8.7150690139745350 40.6979124066224074 12.5913343041266188
 10.0444156523726420 42.8842777933103818 12.5877255241908603
 11.3725639341947158 45.0797088821074894 12.5919182727143220
 12.7096011477916164 47.2798566533404383 12.5926556158322480
 14.0616858749117970 49.4792747116158864 12.5788017000324892
 15.4214896051560082 51.6787878100218663 12.5428943155661710
 16.8372223713442501 53.8504938480982815 12.4489447440923549
 18.2467293723507566 55.9242932896132530 12.3410011039437251
 19.5943694769486214 58.0080654454995397 12.3157548135610071
 20.9343434932667165 60.0903077785190689 12.3811651259964073
  1.0460256313913838 25.2012764200870372 12.3954560537656402
  2.4139180600843950 27.5046404543928844 12.7358087680422525
  3.9469818180579819 29.7323302898315589 12.9128838406608377
  5.4050873276169016 32.0242555562984990 12.9842650935199178
  6.8560630375725164 34.3040944139240764 12.9070233436146289
  8.6463159331726587 36.2144428674192511 12.6233691308647966
  9.9437719384928798 38.4232858759876734 12.5946781218016337
 11.2755617105733652 40.6212883020414566 12.5846246897891927
 12.5978109371730724 42.8107584439080142 12.5959511824294506
 13.9213653413564273 45.0143895622702175 12.6106238180972205
 15.2640404745003480 47.2227111000062436 12.6119103865401065
 16.6184584934248427 49.4197518034529608 12.5897234125971931
 17.9641308666959247 51.6526475949019712 12.5419980870268155
 19.4412604020008537 53.7007042382682016 12.2962649152572396
 20.7717386978542748 55.7650023664154730 12.1396661249717734
 22.0641328730659225 57.8553065456485456 12.1286784313713305
 23.4584071355260555 59.9180794371684158 12.2753466201226988
 24.4473692593243896 62.1640242873186395 12.7128082176986545
 26.5513502430142800 63.9183530682658656 12.6687207041418564
  0.6886425017331129 20.7253939613613447 12.4396900982444052
  2.0668741193256821 22.7184313150026505 12.2847684999917703
  3.2436391242034714 24.5260315927086836 12.4673646005243643
  4.3190072720631818 26.3644283841929159 12.8209411706107268
  5.6590356361419394 28.2615233090396671 12.8683254344191873
  7.0445632394392081 30.4780223238544714 12.9671509222866987
  8.5156552323777710 32.8199695996942751 12.8861528475533316
 11.0153209965162517 36.0079063093712506 12.5308379354581536
 12.4719689612246221 38.4082094922361250 12.5789786842139630
 13.8342378517983082 40.5282209697855293 12.5843539691325947
 15.1316054382250247 42.7305734448165779 12.6201019849016589
 16.4467694451880853 44.9515918111932535 12.6494977218879594
 17.8247651639354920 47.1436036966079897 12.6350669228508963
 19.1459836552366909 49.2639647059302490 12.6534051136212327
 20.6194571546366880 51.2407041234796665 12.6240386164865033
 21.9026920679091255 53.3073723496094090 12.3740817213081957
 23.1424456795601294 55.3312565061988266 12.2650102166823878
 24.3526004584071707 57.3222494761588450 12.2956474958169704
 25.8070681790659293 58.9015055954639877 12.5652005547073280
 26.0920971052104278 60.9033439502243894 13.1369939250748526
 27.9993327512935437 61.8750629853909970 12.9905413452239671
 29.3235693340548131 63.8693171851225401 12.7377267354060848
 30.6518838920414716 65.9107707240717389 12.6031971429378533
  0.4536401108500011 16.3064386619012573 12.5048886353148365
  1.8448614140727919 18.5282636041980169 12.4407672325509466
  3.3429759003958277 20.7486962189345547 12.2690111586033286
  5.2888434084303855 23.8274356984540923 12.3433696928437016
  6.5946671983775316 26.0215027090388915 12.5071947561611676
  8.0134701612518331 28.2564932900687857 12.6576310713420703
  9.3957431244811058 30.5380388358733832 12.6848829510330798
 10.7548402757723398 32.9448378110147928 12.5685870695689150
 13.2411827985647506 36.2141154004579917 12.6619351343918698
 15.1044468496350301 38.1696630237988330 12.5361711844000716
 16.3527211469530940 40.4141870424858354 12.6024899353975126
 17.6283052426332958 42.6482859379364641 12.6821713560265632
 18.9419916536743322 44.8972510088746546 12.7380933815761619
 20.4280335801382726 46.8726373732817123 12.6445501225543442
 21.8701803062757314 48.7889594504016273 12.7277507060467432
 23.1938249765780782 50.9335712574153021 12.5933448617272621
 24.4559246902667802 53.0386946550304401 12.4818271237108824
 25.7400851291278343 55.1257613656794021 12.4810240849075846
 27.1908494861217029 57.1176764414656049 12.5516317670520454
 28.5389192902205266 59.3185104517292956 12.7213240191087120
 30.2960155807051947 61.5204762688299169 12.8227112484885151
 31.9420422064848601 63.6565392794665428 12.6805032610781971
 33.2427352546999941 65.7865544253304364 12.6030024176057189
 34.5681537217827071 67.9394987793569243 12.5739367871777219
  0.3002727308088026 11.8522998051892667 12.5348393964326554
  1.6471132311050583 14.0556428095876829 12.5154110333266058
  2.9980990936045422 16.2750123313175514 12.4746968774796976
  4.4003213367126683 18.5575491585966752 12.3939059281664115
  6.0236762586616948 21.7538236037021449 12.2574713673685416
  7.6762294239713054 23.8640654001814916 12.4069397238092254
  9.0825027360231854 26.0482542715580720 12.5256079692184450
 10.4696658451210869 28.2730749931381666 12.5838729787932326
 11.8140201980868422 30.5340882391961763 12.5780941950842244
 13.1034619802750747 32.8166054414862103 12.5199115000350307
 14.8887211105361175 34.7932289367337901 12.6373784450675348
 17.5352122957790186 37.9935173604063365 12.4841754530371727
 18.8370963273573722 40.2936631148028468 12.6743733461955639
 20.0668783331920757 42.5143005976558328 12.8369985514880405
 21.6233596393292871 44.5333210658314584 12.8914588442803115
 23.0873042281679695 46.4681581354919615 12.7269198386537692
 24.4138586281558929 48.5679743930247056 12.6386397491525013
 25.7382993765650383 50.7255012228445068 12.5860656560077189
 27.0424838027460410 52.8692423013230837 12.5588696739741614
 28.3992093027639712 54.9813758839127402 12.5754140113322670
 29.7811897087521622 57.1319446383968810 12.6315120538317185
 31.2403568517691745 59.2839162281465519 12.6924753337006511
 32.9113947776395221 61.3872679355424964 12.6168688161134064
 34.4503022359463316 63.5080057505279783 12.6114505528515721
 35.8091045887596309 65.6793069527195144 12.5887120443422429
 37.1413418270262099 67.8582571030675297 12.5714853840838003
 38.4764709652304902 70.0435546416350689 12.5649043641869014
  0.1830889311573067  7.3986683182804365 12.5549914413089265
  1.5198232873839770  9.5935227337281290 12.5447246986028951
  2.8586870072247761 11.7967803074882429 12.5338860181948579
  4.1957847067694853 13.9987193615734711 12.5127814082401088
  5.5056019241747602 16.1416391592375703 12.4884710502248613
  7.0117928301587940 17.9046315248857013 12.5612193279339888
  7.3971071536047246 20.0400059638554389 12.5165305979195089
  8.9043223702822694 21.7589247142929700 12.4089040763970555
 10.2474043839348194 23.8577779539446979 12.4726294069544323
 11.6178972873196287 26.0433609047757848 12.5196446157846282
 12.9725365420238372 28.2560399286643253 12.5401325087870816
 14.2919744281913932 30.4716955083307433 12.5319694057389874
 15.6411866001291031 32.6196688458755233 12.5151872204537167
 17.0883916001882632 35.0575868568226809 12.4482552795912937
 19.9200935069227576 37.9065156540651742 12.5650525772231330
 21.3958132889143364 40.0756891702792686 12.8074345453247300
 22.4708152640505396 42.3651159795656511 13.0977607287829514
 24.4185914811195097 44.1044307937533802 12.7866172679927317
 25.6884025599546675 46.2661568613497991 12.6627942757904961
 26.9916751136706701 48.4300072483590327 12.6210124184739030
 28.3097950592548315 50.5979315452707681 12.5959127394454011
 29.6454263885627185 52.7568293434892439 12.5922516457265736
 31.0108403984948531 54.9104736112905130 12.6119005970532925
 32.4006566797645519 57.0752907762285986 12.6344538163712983
 33.8441348865887548 59.1792596898923549 12.7359439974016340
 35.6224526619664985 61.3160177830435202 12.6659271152405744
 37.0368901405110762 63.4188970228842095 12.5901525247242692
 38.3731307826663866 65.5943034143896995 12.5702490020416420
 39.7049658009050503 67.7851811692959529 12.5645846094087421
 41.0429012866271563 69.9789477708299330 12.5669747137442336
 42.3997322626109181 72.1872703622078831 12.5804383154393626
  1.3990899623593935  5.1142215035413345 12.5735350675356266
  2.7418422371472890  7.3313421107191541 12.5572581784248278
  4.0765653526034864  9.5312359307644936 12.5509935685896590
  5.4103329217687639 11.7344560761992120 12.5475874277350794
  6.7583080338773005 13.9393805337244032 12.5402963654630053
  8.3065239027700972 16.0784243785023975 12.4700588451758136
 10.0048044444555604 19.4735483031736116 12.4518821876866923
 11.4475159691325565 21.6649285444175206 12.4795055030135700
 12.8202628149638347 23.8326221045029030 12.5015414471299309
 14.1706815247776863 26.0145764636675239 12.5166288494333671
 15.5005414836455131 28.2078178894975196 12.5285542425410483
 16.8104832868583003 30.4064989588367887 12.5421744223188547
 18.1117009607334580 32.6493444461499678 12.5657641796976201
 19.3632379106623596 35.0473446529204580 12.4978233889827646
 22.2620189466081193 37.6538914901003068 12.6965106608094107
 23.9254913261193742 39.1171017004015980 12.8601347623482845
 24.2717312847237210 41.1878025028295340 13.2534548010972273
 26.1434984324685367 41.9459735876111850 12.6531560050887339
 27.0033941025318569 44.0298121341714506 12.5982368463140801
 28.2486658666926509 46.1358790047727538 12.5942778320338942
 29.5506331195727867 48.3139154142797125 12.5947956336294737
 30.8850945158114349 50.4995462652965443 12.5932116626730384
 32.2422300954671286 52.6716487681796366 12.5930095013801946
 33.6160932922235958 54.8293688267708674 12.5973659512426899
 35.0390875936223907 56.9389197512855603 12.6361106668287793
 36.5766710541622686 59.0568349758792976 12.6897114818800496
 38.3035158352515950 61.1631482202026717 12.5833300336355407
 39.6080607168016954 63.3277303704306789 12.5538469397548909
 40.9296666703584577 65.5181317046751133 12.5561853500479099
 42.2614247553761331 67.7186340425390654 12.5619909686678373
 43.6069949596005060 69.9375186357866170 12.5739711272602985
  1.3112000834504707  0.7178172328254323 12.6001037662555628
  3.9495140573495418  5.0604779702236176 12.5701146657671252
  5.3010443459528798  7.2686278660006636 12.5617879663739789
  6.6310600930834873  9.4606800810718195 12.5673721310825677
  7.9501966752719868 11.6654371355872115 12.5826582395990467
  9.3104178579218413 13.9198405050058529 12.5933992752783634
 11.0757113321484137 17.3803726698472509 12.5332377243608839
 12.6350527630711138 19.5006434346344761 12.5513600150483082
 14.0388780847086387 21.6373948203381303 12.5239091041594666
 15.3978273606806280 23.7900822316810157 12.5122795189642915
 16.7297694399107613 25.9609179824910932 12.5180549338862797
 18.0413715453610308 28.1397361048693782 12.5416768709372946
 19.3244841837876571 30.3120318943056510 12.5913511681390951
 20.5586710395355361 32.4409092716506393 12.6713523470988125
 21.5081190413073138 34.5473868409787173 12.8393462595151213
 23.3587557406191308 35.6927787397105973 13.2280498611622477
 25.1112404970995726 37.1999560996062044 12.7299257078847070
 26.4365277572707740 39.4258879010121319 12.4057709864039403
 28.2502802068341694 41.4885851460230910 12.3663208511069858
 29.4622389205166115 43.7688701925545232 12.5083911694775320
 30.7651298857629563 46.0111404299704603 12.5586762084256502
 32.1015717313651052 48.2299359054052772 12.5804583948859161
 33.4633599863756217 50.4275076659636241 12.5787619122079981
 34.8425504307146312 52.6061942452482398 12.5608616218130607
 36.2472202455612305 54.7547817910990844 12.5339358539779049
 37.6952466327403926 56.8755761620744096 12.5184818066692340
 39.3230532461964231 58.8954476846128685 12.4244923008786561
 40.8051786049374314 61.0210840990932937 12.4887649010097217
 42.1436613471320527 63.2405539542922099 12.5330264063665844
 43.4791772873892839 65.4555825818478922 12.5540604012974359
 44.8152851459885539 67.6649439262791077 12.5655444295189547
  5.1674407915504625  2.8162387970862688 12.5798179659782079
  6.5238790492149379  5.0110194667647514 12.5656199548215604
  7.8655000368397632  7.1915080784116663 12.5706259558992492
  9.1836144933794497  9.3587766245786703 12.5964719126104523
 10.4575119733889021 11.4750141065531732 12.6659957068641713
 11.8437774751814331 13.3252468107660267 12.9138377269903888
 12.2981837764910313 15.5055483847311724 12.8836925961949156
 13.8396249668895148 17.4117789484690455 12.6891105811145639
 15.2732757158349344 19.4749932329554731 12.5901814357829256
 16.6438499352142806 21.5816670905168628 12.5264945516221662
 17.9760719084039842 23.7265667690925319 12.5064891816672983
 19.2932360277004342 25.8817787486636810 12.5211894460272983
 20.5869079248520457 28.0409895425039686 12.5705763378666528
 21.8649981397683071 30.1871929363783273 12.6713956074557768
 23.1254118670058517 32.3049367640137959 12.8386742357319701
 24.7663217448316502 33.9732312244650956 13.2973887844233616
 26.6135117455769930 35.1958051445741233 12.9921369670256563
 27.6244095076263427 37.2316613922792428 12.5175632553915079
 28.9578485671051240 39.2500423649015033 12.2129039546057658
 30.5874020678235148 41.4176293112330640 12.3009662480353477
 31.9189084888566548 43.6948441473720521 12.4807508107036931
 33.2845855514226514 45.9518746910505698 12.5567629078040319
 34.6568459483440137 48.1694288640242405 12.5733721352643748
 36.0451659065102206 50.3773522370479370 12.5466593378822076
 37.4558620154265256 52.5596170760985189 12.4907982862099765
 38.8895759518207527 54.6903138947062146 12.4062023962756722
 40.3589478228333363 56.7067438388897926 12.4202558456661531
 41.9819076800537232 58.7664518980302830 12.4062940627575955
 43.3254281084773822 60.9624456023465626 12.4882498227497560
 44.6782485933503324 63.1870027552901519 12.5431399732258928
  9.1048385082295304  4.9403671566643599 12.5632724789588064
 10.4483118636499022  7.1001663560374633 12.5785545034103468
 11.7752097842343204  9.2257538121287759 12.6339643462683551
 13.1301583390217989 11.2772367407097516 12.7514388657308899
 14.5232887530733521 13.2223581273035862 13.0356947890414219
 15.0635706684060811 15.4115169395874840 13.0072610869007264
 16.5114711859473005 17.3660236726143644 12.6962623035961997
 17.8992592959086139 19.3978162081749836 12.5563174901849504
 19.2313872685163822 21.5021395151239858 12.4926941468269419
 20.5519814713117057 23.6427785791384721 12.4822365351729978
 21.8634796219710061 25.7706057387044645 12.5224473310596451
 23.0943500576561185 27.9137021064908311 12.5960701502677033
 24.4678516252848226 29.9405599147705885 12.7279211556403986
 25.6721414030320325 31.8192553009395844 13.0139375786851907
 27.7299894229935084 32.7010894196264417 12.9756140659594248
 28.8942258963711325 34.8307180342954865 12.6701606479832112
 30.0840765613718126 37.0266860206245525 12.4019216969586576
 31.4113919834450535 39.1511352151657377 12.1811465545466877
 32.9658495008038699 41.3551747735300879 12.3741253625469874
 34.3806397622238364 43.6566696138760335 12.5567619271239508
 35.8287256733546400 45.8886527771320587 12.5679961775627493
 37.2020661475855832 48.1288413504728396 12.5633291062773722
 38.6129286840029309 50.3557946896757400 12.4953681934126042
 40.0891158651234036 52.5201291018032208 12.3450327033433194
 41.5527316327787304 54.5279345945737646 12.2138780071510205
 43.0239005660431246 56.5055677506580452 12.2076250490703231
 44.4600170341489900 58.6852931414804715 12.4260691057928003
 13.0617732955745254  6.9994005825378478 12.5604299932556813
 14.4122314235849007  9.1001712194718305 12.6262691586551981
 15.7944101946067228 11.1561209373648058 12.7595334476626192
 17.2255281752689235 13.1291259455781031 13.0195175493294517
 17.6905911140926833 15.3374430187706956 12.9487682837888531
 19.1646711290682958 17.2711693837682212 12.5734749096735072
 20.4941962190749400 19.2914058038508962 12.4551537535591539
 21.7282468426065449 21.3981606288422590 12.4357415551240873
 23.1725944539411088 23.4987671644855602 12.4421610651857879
 24.4568672218760632 25.4709671032520930 12.4708211406004743
 25.4023499239472201 27.4863264905116615 12.7395424249360474
 27.4764262556246912 28.2137024599616488 12.7918208007755467
 28.5575127831176339 30.2173890730641688 12.7176548907582720
 30.0201550837870919 32.3812675265336125 12.6777216929076282
 31.2894039372491370 34.6562432942131124 12.5422830652737218
 32.5434154736190209 36.8794944638663935 12.3762462584030288
 33.8593537690047199 39.0284639684593628 12.2985645955084095
 35.4008724169392082 41.2830439522625028 12.5879654808339918
 36.9064887843428906 43.5955949599371877 12.6503476942151494
 38.3298498626144664 45.8123784055836154 12.6036277484001964
 39.6990903104371995 48.1020787328986543 12.6066082688188761
 41.1533965228907377 50.3645781328403643 12.4472632927215088
 42.7401623268341240 52.3749313435854589 12.0764756142261334
 44.0882258590617582 54.3300354960312504 12.1237431246560963
 18.4180305446787180 11.0344150254736970 12.6670331050239806
 19.9306509288489622 12.9288630224907024 12.8971908045257706
 20.0214795272407180 15.1473991130674008 12.9393947883425415
 22.1599080292534474 15.1877350157571342 12.5831092038116026
 21.7118507528935396 17.2704637120622877 12.4162108998827723
 23.1753246661126262 18.9075512782038615 12.3232586149730174
 23.9711879179485194 20.9595049837065730 12.5486577734591691
 26.0169039437661631 21.6833943739098878 12.5760951407576265
 26.9344010966284380 23.7198489265917729 12.4487912233574587
 28.2795810669616436 25.6693868251818955 12.5517206391859730
 29.7933750989378971 27.8339623036149959 12.6344172518073226
 31.1170564314776996 30.0656468501265479 12.6353115701122185
 32.4646621047058019 32.3006100976854000 12.5805949191815039
 33.7541443325443637 34.5262017629567737 12.5032766263161754
 35.0309003252077531 36.6953430171028145 12.4481372665716119
 36.3671155473336114 38.7785999130645678 12.5131276190233152
 37.8462939705046821 41.0054254509260119 12.5877509274744295
 39.2838239940926499 43.3273917618049396 12.5332430530696950
 40.7753303832874110 45.6460413804691783 12.7165068411558320
 42.2478838230448162 48.0033921077280112 12.6834288918352964
 43.7098282569646344 50.2048378887752875 12.4870892227168735
 22.6244587704853224 13.0011971119392751 12.5363437034271090
 24.3168896313149752 14.9665581893397857 12.4098653012812772
 25.3930227239233410 17.0660420347171389 12.3631773897890493
 26.7647943742505880 19.0811663829661704 12.4510100413499227
 28.2941263379308445 21.2447145732337148 12.5110588847706996
 29.5599414012568644 23.4286274838630213 12.5398418065825386
 30.9250972294049369 25.5831190567722118 12.5721422212865175
 32.3015005115862621 27.7852292066365685 12.5918748658458828
 33.6487113361811367 30.0007540188188848 12.5823732009811220
 34.9747014325232684 32.2105999886180214 12.5498028390396943
 36.2827036020609697 34.4002072158802292 12.5202872041177482
 37.6088583615624970 36.5606582175980108 12.5166069018307393
 38.9670906654378726 38.7376491139240642 12.5357774544218046
 40.3391103653848404 40.9390379452634932 12.5443811344652563
 41.7273296633941086 43.0626185108680914 12.5980009167417677
 43.2005807130240882 45.2829132882044121 12.6350455379078532
 44.6538886817221581 47.5198538623328446 12.5443382459869799
 26.7515394442696923 14.7719663905727465 12.5529815499745006
 28.0792272734703019 16.8759818268806576 12.5186863285630601
 29.4439561388741176 19.0007757222766500 12.5213544258503795
 30.8054973361531665 21.1718196341745823 12.5360979335527460
 32.1507221056388417 23.3488488627614927 12.5562739043221203
 33.5068325279673189 25.5331167552364171 12.5701505372659028
 34.8581996841511881 27.7298124783028470 12.5725432453414978
 36.1981096519317234 29.9275905108808722 12.5623709655431046
 37.5233369033232194 32.1214104417841710 12.5466800401689422
 38.8479747984389121 34.3082221723381124 12.5358990125399075
 40.1857060412384754 36.4884558643072268 12.5353530538898017
 41.5379769418076989 38.6703660375190026 12.5405615724217103
 42.9115438178385844 40.8479283268879740 12.5409568716978033
 44.3063394769675654 43.0444151014042475 12.5226491430287563
 30.6982936593509130 16.7760884032603848 12.5621169700298925
 32.0405491709975223 18.9308573243999945 12.5520913595700865
 33.3831408011159212 21.1050969055010604 12.5551302875446744
 34.7317731424194704 23.2870756826550931 12.5622636035860449
 36.0781403375860847 25.4744357863224629 12.5671662983156374
 37.4244913662085210 27.6605831865993395 12.5659550959297448
 38.7607862724862713 29.8544292735716112 12.5586508453475378
 40.0846340542608885 32.0460861644932109 12.5493590279547700
 41.4175726529971087 34.2322888644556258 12.5426074664762570
 42.7586271069189365 36.4201288312376121 12.5390102169461830
 44.1112784999734373 38.6131364740532916 12.5302707936543953
 34.6212900996145336 18.8583683849777159 12.5632379996766819
 35.9623709861029042 21.0404869212665595 12.5620987994283180
 37.3075121783738837 23.2270852018320682 12.5668682453633274
 38.6696669939221920 25.4071016100344451 12.5735176200605938
 40.0049520983697846 27.5847617079239846 12.5765931667072408
 41.3298053608467555 29.7668998902634172 12.5653438164255693
 42.6469994626569360 31.9710708554692573 12.5530406173467401
 43.9832601018570486 34.1648833755877206 12.5439103555468847
 38.5318714032880720 20.9761061596740142 12.5675956787931380
 39.8998409010203190 23.1705436278363734 12.5798230012170205
 43.8793818285433730 29.6885977768396963 12.5720560570571340
 43.7480329308567946 25.2923246167684894 12.5988404413041106
  0.3236448154107637 20.6929228466200108  7.1232452283353984
 26.9274847954260679 14.4487505615846459  7.2443636755626590
  1.2469794482845868 49.7573748864756027  7.1987779522087401
  1.1404553989380051 45.3693714041509537  7.2210252549052738
  1.0416415906940146 40.9004641504520947  7.2352474841772461
  2.3712723410971805 43.0924372558163071  7.2389675761850301
  3.6922788541544160 45.2975364057838377  7.2322745766671312
  5.0104810087028628 47.4812979464394829  7.2255623078412849
  6.3371246003447901 49.6533225899559341  7.2240835874196447
  7.6764123474542592 51.8244650922090671  7.2275039618315802
  9.0322944949080384 54.0133883113622417  7.2319986455931948
  1.0080237652526634 36.4768092825434138  7.2170235572220678
  2.2949313831506881 38.6337209706450153  7.2478156102893125
  3.6034789516693366 40.8226021456290766  7.2509383812368249
  4.9305442714351875 43.0145908497259342  7.2482593650356586
  6.2584489506936078 45.2073090137052631  7.2445777472694530
  7.5956423162686297 47.3920201078197891  7.2426272131294889
  8.9280439491835715 49.5775308468679228  7.2403604486365571
 10.2645625508777538 51.7609150410546377  7.2358306337922178
 11.5918344369662769 53.9565310805791256  7.2269926176572712
 12.9171261538818953 56.1752834569168868  7.2190640433833302
  1.1948223284870962 32.1047883320944152  7.1274578521740191
  2.3484433327104255 34.2110831515713869  7.2553354098946796
  3.5771414092782319 36.3516805106357452  7.2943418224794376
  4.8438805733733084 38.5436792546042568  7.2773312171847380
  6.1591105724868296 40.7480493704235371  7.2617193803831288
  7.4901701966806904 42.9473400013028979  7.2550108979369616
  8.8262692446520248 45.1387174041346668  7.2537079807210212
 10.1645947879898557 47.3232607859260170  7.2528939279992253
 11.5001370122151929 49.5043468922684085  7.2466250311538838
 12.8275145957808103 51.6880341999979862  7.2302464422219455
 14.1275116865174848 53.8871080603030848  7.2011466344604473
 15.4225654598606532 56.1358625914276885  7.1636541740471280
 16.7485262727963260 58.4187296562011653  7.1713493339510821
  1.1311384035872869 27.6415818724739246  7.0676928189345167
  2.5219673565965128 29.7350523248389216  7.2800552443926936
  3.6849784574478135 31.9120645210595768  7.3956967773277160
  4.8963410746095590 34.0574348503486561  7.4213721896392837
  6.0919412008664624 36.2465061090442262  7.3494811547637875
  7.3781965665376221 38.4847095766871590  7.2810114912018067
  8.7163249849605897 40.6880637197774391  7.2622653104422143
 10.0555766358035523 42.8860164971721218  7.2586081190342169
 11.3996270558726813 45.0729113205284264  7.2627792296804543
 12.7417605017436575 47.2517283942558919  7.2637325809592150
 14.0745049932105815 49.4285548237682164  7.2500311450359352
 15.3952313375522216 51.5991200547237980  7.2149603070383872
 16.5963286718320333 53.8082502279017518  7.1316228144179608
 17.8809946803892608 56.1602255087371205  7.0461796279736335
 19.2254880560882029 58.4635371568209194  7.0380850175809222
 20.5474301903915837 60.7330448276180661  7.1305853317806998
  1.5295054703282778 22.9601778399584369  6.9901840038338117
  2.0976001628802066 25.6050652340102438  6.9374837658868707
  3.7199774424334433 27.5463392649260967  7.3918475133645600
  4.9409201506878500 29.7593189735838237  7.5847145188673473
  6.1896884279219968 31.8736121676648985  7.6164718924275823
  7.4154686395611282 33.9961172923035591  7.4990538248075991
  8.5668868857316447 36.2378882872241590  7.2844907744878711
  9.9438159320747914 38.4437019655536290  7.2618409098647012
 11.2828398214636376 40.6393791467570296  7.2570567633939698
 12.6316182031563855 42.8316275389741605  7.2673475142139896
 13.9811944838117554 45.0080318409453000  7.2822075652617704
 15.3168602258680551 47.1794285337332084  7.2848371639822291
 16.6580164927147472 49.3637697994952234  7.2573221804543140
 18.0269450435619163 51.5177616716335720  7.2042192439844177
 18.9027377310066704 53.9681575095919541  6.8837807685819836
 20.2708222585134124 56.2743906906556077  6.7619236778632601
 21.6593541019906368 58.5944703128519393  6.7781008881043379
 22.9595614924461806 60.9750700478243033  6.9004276037051202
 24.4825670532801603 63.1981955485642644  7.2612746737950902
  0.3588609884673655 16.2580660836330821  7.1775166144545439
  1.6450134450558049 18.3995826034618943  7.1154472175237444
  2.8561951520612574 20.5203441777921078  6.9606199975262690
  4.0358105296018278 22.6202671205574219  6.6998577960602166
  4.0246211106513119 24.7718340678443845  6.5441637114416480
  5.6774046357527483 25.9322832468218145  7.1444624831454320
  6.4368734509744856 27.9499404923716916  7.4312976169194629
  7.6459205097317824 29.9512846744942891  7.4966521945493581
  8.8845397619414364 31.9827213838781610  7.4234930537295476
 10.1457427716741435 34.0669254080100856  7.2096529083970093
 11.2400119029097745 36.2714057721892402  7.2098674357391292
 12.5374099529231202 38.4010299605353254  7.2532372010440822
 13.8572630014409093 40.6109400862287799  7.2566614359464854
 15.2236791226228494 42.7839158410029441  7.2927299627529640
 16.5784719458010983 44.9379343041421890  7.3229216940503665
 17.8275843038628530 47.1162541073919101  7.3091474960580589
 19.2948931908050447 49.5029180279960599  7.3275596722440284
 20.9805216857399586 53.1662760482690757  6.9139258817010258
 22.4026600502962374 55.5398238226882555  6.7903573609730072
 23.7664514754806078 57.7863314053525201  6.8488501350723796
 24.8720989710113507 59.8470839613197185  6.8582236053398455
 26.0667592520886373 61.6211443531578666  7.2145091653169500
 27.0518595222048539 63.5527411762697270  7.3877530447974111
  0.2912911586876821 11.8258809957663669  7.2057003536535928
  1.6199761715218610 14.0019442681489075  7.1869947810934738
  2.9380783679675244 16.1569885937758748  7.1481208509471532
  4.2468997463529359 18.2820940943944343  7.0595251655752653
  5.3967570725487892 20.7315853474420990  6.9061596770631670
  6.5538652887065094 23.3119668104794648  7.0110012262312296
  7.8942824888431220 25.5233135208321755  7.1993816203400298
  9.0098438327819377 27.7300150019715588  7.2892272715113844
 10.2812054052013089 29.8334276995338357  7.3168676031807367
 11.5854244089281178 31.9216305018197488  7.2408564591985236
 12.9052152558750564 34.0761131571414637  7.1472706640080510
 13.9704331071150847 36.2183004952377843  7.2643752800450052
 15.0744503172954047 38.4141991333841091  7.1996173909067185
 16.4591033112396126 40.5900573725458642  7.2749691368526497
 17.8448594142467556 42.7462771171733706  7.3568513381646037
 19.2566125545857965 44.8765790053705231  7.4037126158329487
 20.1258227607115643 47.4242364405831722  7.2363991926029136
 21.8915057947167853 51.1218903390103776  7.2643807559184674
 23.4181931045214284 53.4261105500850704  7.1085078685166483
 24.8301002734427776 55.6948930227927974  7.1013561163234229
 26.1906501276585288 57.9746674361868273  7.2241434807834715
 27.5727204672791189 60.1142950021261768  7.3814074617059333
 29.3992553021102374 63.3168854861625974  7.4344409318066447
 30.6977622219773174 65.6760585486543675  7.2789319649072768
  0.1867146927654486  7.3837340796578772  7.2171480160204133
  1.5248530295136311  9.5709232143557355  7.2153536075552092
  2.8648536437974887 11.7545026825298056  7.2049629835063076
  4.2034637625014879 13.9308640586867121  7.1857081859930414
  5.5270410860158226 16.1244255429647936  7.1625516233010762
  6.7125796541529690 18.4578623855588049  7.1530683979924570
  7.8163868217017862 20.9108062422748020  7.0706986561064218
  9.0586676027330757 23.2049848552606512  7.1348241920277689
 10.3390190596382521 25.4259352528462763  7.2033406082574603
 11.6002474925659307 27.6070940531469411  7.2389422043772402
 12.9180871053773121 29.7552253419851489  7.2408554769476323
 14.2460033766151977 31.9262353252932165  7.2296221789694997
 15.5396076048192864 34.0682036001481734  7.1939905807221090
 16.7273683039348384 36.2123275472998571  7.0811114620367341
 17.7388729835024535 38.4462835591198839  7.1625727411195435
 19.0624955493519650 40.5825797670604018  7.3579284722506770
 20.5228942442136848 42.7991682383135625  7.5286073840243386
 22.1283701494999647 46.5887155976794745  7.2810879062425000
 23.0681449034505377 49.0862709734021081  7.3457362919001952
 24.5186551422693455 51.2805727763664692  7.2462584354854283
 25.9291961031514973 53.5102033457218198  7.2074369853329161
 27.2898185591152647 55.7575245489770950  7.2413009017027949
 28.6090366292015439 57.9946397672047311  7.3424646096422723
 29.7420303053304096 60.4547453308270946  7.4743597203917451
 31.8362807636629874 63.3751134594158927  7.3466082536350727
 33.2230704960378347 65.6688407005582775  7.2762638410304303
 34.5738352857283928 67.8875381653464700  7.2455268806010871
  1.4038045301153133  5.1033180183355205  7.2108997951107758
  2.7514032221236779  7.3179955629429498  7.2210374603286551
  4.0965791111560090  9.5103444156037291  7.2217909953322232
  5.4459713893276822 11.6961581018564349  7.2188168725861468
  6.7838514505760683 13.8757695676799830  7.2078951334184218
  8.0250080555382084 16.0830718447387397  7.1442134067764398
  9.1048272743086489 18.6288267103219418  7.0698677882678220
 10.2999957610627177 20.8850860242970349  7.1589787189015270
 11.5834176184895465 23.1249523374010302  7.1766060219456351
 12.8749746372067300 25.3371060069412515  7.2028227788035064
 14.1891480414172158 27.5250933523416741  7.2171599893228580
 15.5253882163486985 29.7039805964614381  7.2242462206827014
 16.8729002398146690 31.8636112496174881  7.2342892217113937
 18.2058612499843058 33.9752600964983458  7.1910100320184025
 19.5065185017150959 36.1694292175080960  7.1141893820428974
 20.4064500687800212 38.4525831320301990  7.2532800050587989
 21.4844778945031116 40.6582224221293771  7.5128500449304507
 22.8221896572197380 44.5049455015140865  7.5401471415324401
 24.3901494741264138 46.9214822882116067  7.3887144016828996
 25.6917062440049691 49.1084022522978074  7.3181129477268563
 27.0752282776216262 51.2996992422993401  7.2737093177449150
 28.4424592759769119 53.5177306485371176  7.2711238411961734
 29.7802381900142201 55.7340387650399265  7.3049242172858326
 31.0482599058481270 57.8874640075705926  7.3618767816780482
 31.8973715748012019 60.0093058520506659  7.2489605410854985
 33.6157868018385457 61.3344545284489868  7.2215231474867263
 34.4834868107990005 63.4851005940545150  7.2865593816946763
 35.7854914342483994 65.6338402070671378  7.2615203069792607
 37.1286538751632733 67.8348882329312772  7.2424879265081419
 38.4744520059111181 70.0361220203538153  7.2355193879206334
  1.3145768375720055  0.7116139837929897  7.1972418216606266
  3.9567058290892994  5.0544867103243654  7.2202422304213849
  5.3185092530829099  7.2663491993612981  7.2302755496170104
  6.6732559538853806  9.4607135765421333  7.2387785648951759
  8.0313589922449893 11.6442447231895745  7.2547242303368327
  9.3896046522293268 13.7938671605765535  7.2556204321453759
 10.4850019136013302 16.2475500972089115  7.1735798768742614
 11.6244782179244748 18.5763467889929359  7.2042736055248904
 12.8309254920175455 20.8262641396998944  7.2115527843739935
 14.1196485790641066 23.0551779720167325  7.2017056729134312
 15.4349469025715536 25.2714444890994514  7.2044067213222087
 16.7739824569816953 27.4759004724902205  7.2188564434161258
 18.1333183864873710 29.6714512486851980  7.2509589895602229
 19.5090492838750897 31.8396843801080180  7.3022501062159186
 20.8954457406339067 33.9685241717350337  7.3503549795180358
 22.1489734018507605 36.2022494365184571  7.3105290231833919
 23.0155530085589959 38.4531236836074228  7.4021624878481429
 23.6413608804472055 40.6653228485934832  7.3302539217944345
 24.1648264573123512 42.7621968508500387  7.4542488118525387
 25.4915134926204487 44.7473555921557633  7.3906787550937185
 26.8819211612790383 46.9101655042725270  7.3249890438680607
 28.2573960574607312 49.0846314454717358  7.2960769751264714
 29.6208255901797095 51.2724862251184987  7.2853388744855936
 30.9670079291797649 53.4722980974817901  7.2911291831551397
 32.2948967735030337 55.6811534023074373  7.3153818014654046
 33.5964732064822087 57.9602432394114899  7.3554572435334284
 35.8241365926116444 60.9995823463034483  7.3488270437024745
 37.0047535847381255 63.3627191038303224  7.2577764344518805
 38.3440822279402624 65.5818874326629384  7.2413443099927131
 39.6932512407758580 67.7831105821350661  7.2353545838655844
 41.0410339839848390 69.9789047696605877  7.2307499148055534
 42.4007185186567810 72.1867596378774294  7.2177951308555590
  5.1701816999715833  2.8112036148927322  7.2175275670478563
  6.5288815486363552  5.0154707946459460  7.2317836268291860
  7.8846919327652412  7.2177595704521424  7.2418884857922290
  9.2488938093848461  9.4299839982548388  7.2704710100047931
 10.6237523468191668 11.6543975119143450  7.3486737743637107
 11.9114787381085883 13.9227034307283279  7.5013535762038801
 12.9172568025146308 16.2034415351278049  7.4235367457538821
 14.0775569827970646 18.4936135836490436  7.3157913167712296
 15.3392817226219780 20.7579132144461198  7.2387487385957368
 16.6578041995655326 23.0050102871619870  7.2053667382786841
 17.9958654343526980 25.2321693196587198  7.2046088541694413
 19.3524024617910655 27.4515740681316629  7.2367567055325672
 20.7318455285002301 29.6716424686794831  7.3068200130932643
 22.1280675276337142 31.9046111822572058  7.4525855679668602
 23.4451675503602175 34.2099044991793519  7.7211426296747669
 24.5781762073050842 36.4105563331839548  7.5088251934346930
 25.6925503571026930 38.3516310969268588  7.0618097458939744
 25.7690679053205507 40.5705482951843166  6.9766773296269147
 26.7163387162894601 42.6679047605913979  7.2904237216170600
 28.0892557394052069 44.7427879267994584  7.2720104811977269
 29.4614118613270080 46.8747909877369082  7.2779738064377639
 30.8229425946371194 49.0343673279938983  7.2809895442516357
 32.1670046772490821 51.2127399566568116  7.2795634313952444
 33.4920436290590899 53.4086214978873599  7.2764288912702115
 34.7938577705595122 55.6275833080554563  7.2751709787785463
 35.9499524307982483 57.9682857018460140  7.3267971429721968
 38.1916448579179288 61.0710790543273703  7.2458976027422457
 39.5552351664588571 63.3397393116685024  7.2254759932511501
 40.9146613637018888 65.5351476553592107  7.2274676502035344
 42.2611385349808302 67.7265094542295003  7.2304518618422424
 43.6113235423110268 69.9395491613903175  7.2241005120614510
  9.0914301116894265  4.9649986298712072  7.2340729998418469
 10.4408973419846767  7.1882728572971804  7.2509882549310030
 11.7984958123482944  9.4366819156607509  7.3121698605564092
 13.1305395344508362 11.7124673743122543  7.4566173871948687
 14.3673878110105484 13.9195586825201136  7.6579523396175508
 15.2899769908806995 16.1460393725468450  7.5326082243015966
 16.5274458968991134 18.4392095921990702  7.3165943283007051
 17.8496128574349981 20.7508460388250420  7.2222043728926018
 19.2077143205876375 22.9827072638579644  7.1857177584470362
 20.5537849991419996 25.2147499063352498  7.2002523761372315
 21.9193745856430233 27.4649848623916633  7.2636824454273201
 23.2995579194577225 29.7191573849904955  7.3914158752948760
 24.6088011928013550 32.0439471132230906  7.5837402370367899
 25.8189158833842782 34.2808014815933930  7.6738750937454405
 27.0946218678457171 36.3986378293700525  7.3176468872625033
 28.3956513513375519 38.4299349297826822  6.8847346437501278
 28.0897356267028435 40.6661855911894747  6.9292930401936550
 29.3635480524748367 42.6462838583244306  7.1399873774864364
 30.7107491553590393 44.7001147621677362  7.2137454425948091
 32.0550534573056680 46.8113934895972434  7.2574858846019330
 33.3868088309733366 48.9607101197198631  7.2690641228112360
 34.7088467774063645 51.1315781952882489  7.2559414666782471
 36.0076856507158496 53.3230443539899355  7.2270419725606567
 37.2618761562242682 55.4980097139600161  7.2015481339035778
 38.1557766263896809 57.6683680355187889  7.0580758370761503
 39.8925146245008193 59.0154424781142239  7.0057974351378496
 40.8312793521088011 61.1674590492627601  7.1632009617749901
 42.1518144856214931 63.3003573036101415  7.2057433213277005
 43.4931032468038765 65.4776781645659725  7.2250749145891371
 44.8279985668565999 67.6705530299513356  7.2316630362275811
 12.9686137876436298  7.1705367275784146  7.2369154315718918
 14.3073043972971679  9.4460632433028859  7.3147496151077807
 15.6121196281737120 11.7131650271343553  7.4818636503716371
 16.8244651540280650 13.8703124141789313  7.6689400061530932
 17.6190066975008293 16.0816327113176420  7.5019709193285040
 18.9878580021903680 18.5763779408076175  7.2459866174565093
 20.4059326036217676 20.7441257287730352  7.1661063016473436
 21.7802540497897859 22.9748335620758688  7.1631645106446928
 23.0979192007066416 25.2647403933770782  7.1615076325646818
 24.4865395230659075 27.5298953240374118  7.2791364648505201
 25.7906593487972273 29.8586460340185340  7.3773623986301615
 27.0682946885465796 32.2060047394594946  7.5899931680914365
 28.3635679111704100 34.3208994620779819  7.4166720288919628
 29.7338410371518371 36.4154288096664942  7.1401963256813756
 31.1120114418309974 38.4104168535430404  6.8133533612285380
 30.7033522832710446 40.6266560479238734  6.8304675237478909
 32.0300272420406742 42.5687122782598237  7.1127354684259476
 33.3394013042539541 44.6018426682984241  7.2195241972596529
 34.6320868615330824 46.7168164442631593  7.2656489592221263
 35.9444315464790947 48.8673719284864916  7.2554439151715346
 37.2297464214450144 51.0300300632241957  7.2062671425428366
 38.5039453619385341 53.2314416520312719  7.1262226766904364
 39.7096949792142624 55.5513213844043747  7.0696971022334649
 42.1621440894636237 58.8357476864355817  7.0799633221286573
 43.4240780889539977 61.0677449925977172  7.1623066163265339
 44.7438138029470949 63.2291762968403717  7.2152449584747567
 16.7947232127662929  9.4495508744986090  7.2525528863372237
 18.0882535868938383 11.7082547483518020  7.4164533104135790
 19.3137230567770928 13.9215745299237028  7.5222717890334732
 19.7348581361473485 16.4459113353798294  7.2324178341940630
 21.5679855451467262 18.5138928239184288  7.0762943366412090
 23.0053291128721824 20.8014690810709020  7.1051429924771075
 24.3308193056029012 23.0450574557759680  7.0616743013766339
 25.7112795656175983 25.4064280732318721  7.1079067886873695
 27.0665330879018455 27.8005769633407240  7.3731259417258945
 28.4014786387486105 30.1036330177433307  7.3913241524423352
 29.6784877844252506 32.2289236695273331  7.3715490833489614
 31.0370698509129994 34.3295015641425607  7.2380223242806538
 32.4249512691148283 36.4179544387536467  7.0861695917663896
 33.8143505777741780 38.3914715864302494  6.8905950811019903
 33.4687726137991959 40.5908916437207026  6.9114655676868333
 34.7891199936758539 42.4036863209845691  7.2290313197318001
 35.9563058100292707 44.4457795423957691  7.2777068637097777
 37.1684395613715424 46.6839846358599857  7.2824311163963253
 38.5344100318424267 48.7427334113198185  7.2318541301184327
 39.6876232348529854 50.9109601275822357  7.1262659377467914
 40.9667081820954522 53.1404418359887885  6.9589440226663246
 41.9412281002988294 55.5429465152830701  6.7836806555147025
 43.7988784445711232 56.7925484864579246  6.8220041412605132
 44.7734269476241522 58.8895463466238027  7.1198964916683600
 20.5287327244410598 11.6479350929711014  7.2912618293845224
 21.7368056121887250 13.5330063131730096  7.0848101663101151
 21.5708184278142454 15.5986521795371953  6.6606244482349668
 23.4222028856353930 16.6729711689397071  6.8070770006568893
 24.3710918665608816 18.7943135434392161  6.9749070742671524
 25.6789002415109167 21.0631436547219906  7.1807494793072042
 27.0906805030755713 23.3786971369949406  7.1316911520909576
 28.4176310777635734 25.7133643550789017  7.2142882065709033
 29.6562742494230847 27.8914970243275029  7.3088533136961651
 30.9750715622379893 30.0399545360473184  7.3093683653661543
 32.3173831101585733 32.1778830093904773  7.2589991793885815
 33.6987418796777050 34.3176486941500158  7.1826288169125254
 35.1235054749689297 36.4850041831726983  7.1305609902372629
 36.3905406585143183 38.8580349021893667  7.1742492619080318
 37.5030273529675142 40.9597522238398284  7.2667804318821112
 38.8844565914133895 42.7172038460100154  7.1356832068250355
 38.5854461477473265 44.8721733557298279  7.1602398867212038
 40.0014943872252928 46.5760638355957042  7.3493630267158583
 41.2277271995020769 48.4921493577084419  7.2997948931181815
 41.9721253316126806 50.5649118347772557  6.9582720028882852
 43.9386455394059254 51.4974229857304806  6.5695683750530556
 43.2585430673826963 53.6129716947356059  6.5002294468705060
 45.2880135320167696 54.5006921114368268  6.8054812375690927
 24.3522610762955658 14.3477444126741833  7.1288976453271475
 25.8158975514300195 16.7026056559282026  7.0598915836694083
 27.0585588660529304 19.0172260319420090  7.1171150310875770
 28.2953498488770201 21.2044111304530034  7.1861677138413711
 29.6245666780431343 23.4251227227818823  7.2074657156404287
 30.9436863104044839 25.6340031829297850  7.2437712742928433
 32.2468490163490529 27.8108442991113769  7.2645917812429976
 33.5777017174086723 29.9685818469102259  7.2544781871935609
 34.9330180406865338 32.1301084292116101  7.2226219253653614
 36.3023487897814618 34.3126012749219882  7.1943898671111786
 37.6460615694917138 36.5446203207298481  7.1881832753714461
 38.9499203064690107 38.7486944189729101  7.2029402426154805
 40.3096172687007979 40.8801802052248675  7.2186396519781084
 41.5382391181779553 43.2205503912871407  7.2614471244030838
 42.7097743968555079 45.3576402453805798  7.3134428308475430
 43.9312701423827292 47.4078050751077171  7.2325656821199438
 44.9903508437988364 49.5117969465965402  7.1011075755407855
 28.2514461126194476 16.7100442228884027  7.1944211496318093
 29.5534922027836977 18.9533936059778938  7.1946158483866345
 30.8565001696864343 21.1669707606143511  7.2089061956836433
 32.1769177609194230 23.3665055544919547  7.2273692118964243
 33.5006868515322935 25.5549555237031676  7.2414328373600050
 34.8320833829481415 27.7301107027363400  7.2435577589139877
 36.1728163578127635 29.9008497002717313  7.2331436487276131
 37.5188121357544802 32.0823172900282998  7.2180285968415472
 38.8621338223792989 34.2799113008867806  7.2072503508670476
 40.1932956169361475 36.4820549309416648  7.2062840601605735
 41.5188326046862528 38.6740735894778496  7.2129936462169777
 42.8295737108257200 40.8734923490186972  7.2132643392519986
 44.1008885301003417 43.0505363258527609  7.1951283466457863
 30.7530249848570669 16.6755456006258953  7.2352282015644747
 32.0811040761908046 18.8978803216508311  7.2236814527574849
 33.4096543400924730 21.1030677130362676  7.2261328297034932
 34.7398709759426652 23.2957901468052846  7.2330335779059869
 36.0716814950398117 25.4789510764146208  7.2356271915323980
 37.4128793972161020 27.6529505492404759  7.2320737028102560
 38.7537739459859267 29.8361804609385004  7.2248275279543970
 40.0864284014618804 32.0252814289978502  7.2178552162034029
 41.4215563941299365 34.2177832374204485  7.2133307773064557
 42.7511083825797726 36.4116990709067494  7.2098928119229466
 44.0754002684804647 38.5960716532761623  7.2016671259270568
 34.6313097891044492 18.8399619126822238  7.2341071194670636
 35.9697091378114706 21.0381479259593114  7.2327138230974413
 37.3085618464690398 23.2286300792924152  7.2306434464032971
 38.6656119551966952 25.4045684369545164  7.2236470049166863
 40.0005347823117816 27.5756871172349953  7.2143194734138012
 41.3290594583557365 29.7530012864506652  7.2154914017093166
 42.6487043721921495 31.9561873610373368  7.2168107634247125
 43.9830162378128406 34.1486010355151350  7.2145072916929962
 38.5326345609084413 20.9747041523664386  7.2297493867172022
 39.8997344122825055 23.1694380581185975  7.2171798166409706
 43.8812698919750019 29.6764735390564880  7.2094214677062283
 43.7498917422604450 25.2865557792177036  7.1959717330449484
