C  F                                    
   1.00000000000000     
     9.4289598888230390   -0.0007996940446011   -0.1025317408392022
     4.7155319770091761    8.1653410638863999   -0.0284327248425211
    -0.2209613717413592    0.0540973021194524   20.5362621955136788
   C    F 
    52    30
Direct
  0.0323658809726591  0.9880864390022229  0.4839245436236829
  0.8588143654589624  0.0951487094673913  0.4539920631911535
  0.9031900680373002  0.3503150885546945  0.4539930663589943
  0.7981442032230253  0.2846300147999236  0.4839223493384667
  0.8671633874565451  0.5235323662504571  0.4833689448135313
  0.1583647270052574  0.0507906862869867  0.4539979679806531
  0.2416239062288254  0.2677656207797676  0.4894808790269339
  0.0947025827572943  0.2223158878912388  0.4839234962017074
  0.1720539888289983  0.4600915018021752  0.4807320947123346
  0.9889861266779674  0.5718216803383297  0.4522629225041492
  0.0781971356682121  0.7958469521609378  0.4894835940594171
  0.9585903152790340  0.7544888340326310  0.4526386315346954
  0.5513373418278220  0.1810807152980241  0.4522603958789290
  0.3991126422479014  0.1506601274759412  0.4526346441636830
  0.4826872740664565  0.3622317838671352  0.4807318943813066
  0.3067114465135025  0.4987693861441191  0.4526703513825758
  0.3797381546906365  0.7434215553698547  0.4522611842512647
  0.2699389674494164  0.6728347151344870  0.4807364928403001
  0.3335522053248366  0.9143678590095345  0.4833714615362574
  0.7243676002320256  0.0571576536349264  0.4833684889303333
  0.6062807282081925  0.4311975136704095  0.4894884077232222
  0.6750813738073642  0.6605236875620338  0.4794246681865196
  0.5624265168794581  0.5911727957889392  0.4526345904271317
  0.6399891934978037  0.8321125151388138  0.4517381493252665
  0.4702717513352590  0.9693534442229116  0.4794253469171804
  0.7790873352340620  0.8653436615443756  0.4794292838324030
  0.0872967172491298  0.9899590918146116  0.3464215083259932
  0.8990007473124803  0.0518401538663532  0.3763436931587307
  0.8546311772403496  0.3513802403602167  0.3763461266151708
  0.7907207554660285  0.2241774333441753  0.3464175218473348
  0.3261860266935322  0.0590231972861549  0.3469795904051161
  0.1541625156432102  0.0962266165182929  0.3763496949714430
  0.0701851082606762  0.4332331130069294  0.3408590849068048
  0.0249474242176750  0.2865289767596651  0.3464187358156917
  0.9545656500281827  0.5921990554144916  0.3777093167739682
  0.5583832639624058  0.1516595239313853  0.3777056767880284
  0.3757355294338749  0.1820898576045600  0.3780763216707493
  0.3026724136572503  0.4997941509432871  0.3776655982219823
  0.2628663666190227  0.3640115445773315  0.3496047096294229
  0.1650025636814671  0.6746306799098055  0.3496065693981983
  0.9850055023551985  0.7444384117625230  0.3780836128344584
  0.8598297161070141  0.9162203719272596  0.3469827609102040
  0.5982549512191884  0.2697835512159319  0.3408571847193844
  0.5473534767394514  0.5728252035489162  0.3780751568859914
  0.4756111045819998  0.4618810783402834  0.3496064938434554
  0.3950876785599602  0.7554996964470079  0.3777025724788979
  0.2336235357560882  0.7978655631726832  0.3408530986913480
  0.7721874656373705  0.6622663644350805  0.3509157732187530
  0.7170501758172219  0.5253765844186761  0.3469752286641418
  0.6360581951287611  0.8331023401349781  0.3786095200142952
  0.4633529943963360  0.8670926010381040  0.3509147439241785
  0.6681726296802196  0.9710837574889596  0.3509156716197154
  0.8972511188648279  0.5018304179682038  0.5493349060948231
  0.8827871732973714  0.9114322995422930  0.2810137608267070
  0.0539240240757099  0.7831183749124122  0.5542908852023689
  0.2697097338208679  0.7869118895977665  0.2760428807521180
  0.1365931090984008  0.6486313456162729  0.2857210329320642
  0.3252187084537964  0.6450642171552059  0.5446210761313912
  0.1505455820060933  0.5110541731555072  0.5446150551042976
  0.0389356563059466  0.4737351290359046  0.2760445218764939
  0.3112190889910136  0.3399270336859476  0.2857149431912190
  0.2847012835332391  0.2391224643722532  0.5542958818493074
  0.3018044373418089  0.0864271581077228  0.2810085123625026
  0.7222099383219134  0.0828016399306871  0.5493367869684598
  0.5829232992968707  0.2429200027496652  0.2760445444842196
  0.4592401798466291  0.3364156826852644  0.5446188844064352
  0.4452768850982781  0.5146056436827912  0.2857235882610824
  0.5979033136756586  0.4699206123467903  0.5542974797616373
  0.7078078183467772  0.5054379687920959  0.2810091865993942
  0.6254630917821568  0.6950191117538029  0.5431449251386473
  0.7864169549754650  0.6985111128578331  0.2871962758473959
  0.8002310985643049  0.8114124961432001  0.5431498361589392
  0.6116829685336603  0.9896380301246333  0.2871942278795429
  0.5090783826113591  0.9861766889462358  0.5431479134676362
  0.3162756302381783  0.9077620670954806  0.5493390169904310
  0.4953022100183473  0.8149151858319674  0.2871962513763215
  0.0704689471379743  0.2238126024762068  0.5489699932363359
  0.0238568635789607  0.2596616714709786  0.2813626384210710
  0.0382519417702754  0.0125112472312806  0.5489757919602650
  0.8125393476565946  0.2274779503354646  0.2813635192528767
  0.8269736712026573  0.2560263771679867  0.5489745431929574
  0.0560837046876052  0.0161373747997954  0.2813631922597128
 
  0.00000000E+00  0.00000000E+00  0.00000000E+00
  0.00000000E+00  0.00000000E+00  0.00000000E+00
  0.00000000E+00  0.00000000E+00  0.00000000E+00
  0.00000000E+00  0.00000000E+00  0.00000000E+00
  0.00000000E+00  0.00000000E+00  0.00000000E+00
  0.00000000E+00  0.00000000E+00  0.00000000E+00
  0.00000000E+00  0.00000000E+00  0.00000000E+00
  0.00000000E+00  0.00000000E+00  0.00000000E+00
  0.00000000E+00  0.00000000E+00  0.00000000E+00
  0.00000000E+00  0.00000000E+00  0.00000000E+00
  0.00000000E+00  0.00000000E+00  0.00000000E+00
  0.00000000E+00  0.00000000E+00  0.00000000E+00
  0.00000000E+00  0.00000000E+00  0.00000000E+00
  0.00000000E+00  0.00000000E+00  0.00000000E+00
  0.00000000E+00  0.00000000E+00  0.00000000E+00
  0.00000000E+00  0.00000000E+00  0.00000000E+00
  0.00000000E+00  0.00000000E+00  0.00000000E+00
  0.00000000E+00  0.00000000E+00  0.00000000E+00
  0.00000000E+00  0.00000000E+00  0.00000000E+00
  0.00000000E+00  0.00000000E+00  0.00000000E+00
  0.00000000E+00  0.00000000E+00  0.00000000E+00
  0.00000000E+00  0.00000000E+00  0.00000000E+00
  0.00000000E+00  0.00000000E+00  0.00000000E+00
  0.00000000E+00  0.00000000E+00  0.00000000E+00
  0.00000000E+00  0.00000000E+00  0.00000000E+00
  0.00000000E+00  0.00000000E+00  0.00000000E+00
  0.00000000E+00  0.00000000E+00  0.00000000E+00
  0.00000000E+00  0.00000000E+00  0.00000000E+00
  0.00000000E+00  0.00000000E+00  0.00000000E+00
  0.00000000E+00  0.00000000E+00  0.00000000E+00
  0.00000000E+00  0.00000000E+00  0.00000000E+00
  0.00000000E+00  0.00000000E+00  0.00000000E+00
  0.00000000E+00  0.00000000E+00  0.00000000E+00
  0.00000000E+00  0.00000000E+00  0.00000000E+00
  0.00000000E+00  0.00000000E+00  0.00000000E+00
  0.00000000E+00  0.00000000E+00  0.00000000E+00
  0.00000000E+00  0.00000000E+00  0.00000000E+00
  0.00000000E+00  0.00000000E+00  0.00000000E+00
  0.00000000E+00  0.00000000E+00  0.00000000E+00
  0.00000000E+00  0.00000000E+00  0.00000000E+00
  0.00000000E+00  0.00000000E+00  0.00000000E+00
  0.00000000E+00  0.00000000E+00  0.00000000E+00
  0.00000000E+00  0.00000000E+00  0.00000000E+00
  0.00000000E+00  0.00000000E+00  0.00000000E+00
  0.00000000E+00  0.00000000E+00  0.00000000E+00
  0.00000000E+00  0.00000000E+00  0.00000000E+00
  0.00000000E+00  0.00000000E+00  0.00000000E+00
  0.00000000E+00  0.00000000E+00  0.00000000E+00
  0.00000000E+00  0.00000000E+00  0.00000000E+00
  0.00000000E+00  0.00000000E+00  0.00000000E+00
  0.00000000E+00  0.00000000E+00  0.00000000E+00
  0.00000000E+00  0.00000000E+00  0.00000000E+00
  0.00000000E+00  0.00000000E+00  0.00000000E+00
  0.00000000E+00  0.00000000E+00  0.00000000E+00
  0.00000000E+00  0.00000000E+00  0.00000000E+00
  0.00000000E+00  0.00000000E+00  0.00000000E+00
  0.00000000E+00  0.00000000E+00  0.00000000E+00
  0.00000000E+00  0.00000000E+00  0.00000000E+00
  0.00000000E+00  0.00000000E+00  0.00000000E+00
  0.00000000E+00  0.00000000E+00  0.00000000E+00
  0.00000000E+00  0.00000000E+00  0.00000000E+00
  0.00000000E+00  0.00000000E+00  0.00000000E+00
  0.00000000E+00  0.00000000E+00  0.00000000E+00
  0.00000000E+00  0.00000000E+00  0.00000000E+00
  0.00000000E+00  0.00000000E+00  0.00000000E+00
  0.00000000E+00  0.00000000E+00  0.00000000E+00
  0.00000000E+00  0.00000000E+00  0.00000000E+00
  0.00000000E+00  0.00000000E+00  0.00000000E+00
  0.00000000E+00  0.00000000E+00  0.00000000E+00
  0.00000000E+00  0.00000000E+00  0.00000000E+00
  0.00000000E+00  0.00000000E+00  0.00000000E+00
  0.00000000E+00  0.00000000E+00  0.00000000E+00
  0.00000000E+00  0.00000000E+00  0.00000000E+00
  0.00000000E+00  0.00000000E+00  0.00000000E+00
  0.00000000E+00  0.00000000E+00  0.00000000E+00
  0.00000000E+00  0.00000000E+00  0.00000000E+00
  0.00000000E+00  0.00000000E+00  0.00000000E+00
  0.00000000E+00  0.00000000E+00  0.00000000E+00
  0.00000000E+00  0.00000000E+00  0.00000000E+00
  0.00000000E+00  0.00000000E+00  0.00000000E+00
  0.00000000E+00  0.00000000E+00  0.00000000E+00
  0.00000000E+00  0.00000000E+00  0.00000000E+00
