C  F 
 1.0000000000000000
    28.3025016253461175    8.9362857982728059   -0.0002835050465172
     6.4520815502179314   28.9802758931302620    0.0009670613423240
    -0.0004840063369122    0.0008247520774185   19.7979440527528681
 C   F  
 532 262
Cartesian
  7.9468661958460487 29.1751030238757387 11.2714650765210287
  6.1218680590188379 24.9692872011417428 10.7660544902723085
  6.8096635873390561 26.3520632830624386 11.3315357218496437
  8.1221810179862057 26.6102918159600037 10.5263113839394808
  8.8490923330742799 28.1384792357746569 10.6145968475072277
 10.2983358151670927 28.0125858290553147 11.1593014123307519
 11.0461740058212108 29.2616053043723383 10.6720604511601636
 12.3617129863514439 29.5272536289114420 11.3212977121193727
 14.4655481711437943 30.9104290683581588 11.2170324544464126
  4.7921333554733456 22.2839855401923579 10.7609603168893848
  6.3746973371398141 22.5607645686794918 10.8928111602195976
  6.8200743847942640 23.8437082085680601 11.5811628062327578
  8.4165337135502281 24.0097770496004834 11.5119535471970380
  9.0116342666511500 25.2099421648704300 10.6779210104680047
 10.4928814252218086 25.4399284911129762 11.1677151474568230
 10.9668099238629271 26.7471734151213738 10.5568515377720722
 12.6485507461646360 26.8622228609873410 10.6226536289110403
 13.2366412685964931 28.1949642521052048 11.3832205372471478
 14.8213327726187103 28.3755649521922741 11.1981557786387604
 15.3862049363304898 29.7400512216961523 10.6003290561050481
 16.8454373788686738 29.9160698290457248 11.2464742161990809
 17.5836913354224933 31.1588296154627677 10.7217745603219807
 18.8722065423513641 31.4692393028495800 11.4172746856137586
 19.4902195162295442 32.6703173964580671 10.5606778694323005
 20.9183748201970978 32.9270332341195768 11.2076864827494909
  4.3123646079028353 18.3068942946302968 11.2815399136985217
  5.0417516473612185 19.7474496178912666 11.4677846902263916
  6.4879731781850918 19.9515519555767149 10.7686838697701059
  7.1074476859692055 21.2894799285374532 11.3840893236852470
  8.7203222108942082 21.3772040924363864 11.3188850705628568
  9.2028721034217433 22.7636819136682966 10.8245894454949649
 10.7036602278474149 22.9256206526648043 11.2817090964217339
 11.4122185772212230 24.2507726371064649 10.6746093417750938
 12.8372789373345686 24.2445770140847436 11.3165933320680452
 13.3683222837377453 25.7151959897573015 11.5249173671011533
 15.0033390806086278 25.8855011920609499 11.6276967736593413
 15.4744180516725436 27.0531625697477196 10.6951913622062520
 16.9900980683136957 27.3937777833465219 10.5619799725620833
 17.7125816447117508 28.5660207405242659 11.2128062395855306
 19.1998680901351797 28.8013783228794296 10.5221539470915761
 19.7464131513989258 30.0770041813310343 11.4104215558363293
 21.3036259799466521 30.3490161600331909 11.2832067700077623
 21.8342303644604705 31.8054198764859137 10.7102613914426392
 23.3094155205640092 31.9088817226716621 11.2196672687909480
 24.0428664557386327 33.1713004804509168 10.7473174756405943
 25.3562095636306850 33.3184114441494685 11.4862865170481090
 26.0604184665165874 34.4315609830636689 10.7038223006554603
 27.4609315832793968 34.7061087552529202 11.3122493157883941
  4.5146707905953276 15.8473987318610376 10.5066289456456943
  5.1893680914843650 17.3051355682098418 10.4777041613016220
  6.6348809862084748 17.3320534997978619 11.2022990399390192
  7.3916189770270160 18.7714745457962096 11.2748938832874668
  8.8184671188846515 18.7990045996568078 10.6631475426342206
  9.4346516176125448 20.2556057307802675 10.5189219508105740
 11.0136719106362868 20.3710105523879115 10.5443851650572125
 11.6220853967212392 21.6068988004401383 11.2540661021033568
 12.9790531692557067 21.8358954313384181 10.5764354698592413
 13.8119330358023653 23.2145904537481726 10.7575691922517525
 15.1207447500630821 23.1962069567688935 11.5537302179461463
 15.9493327145344423 24.5864392790199915 11.5078046898452229
 17.1332269208619152 24.6984797240141702 10.4319770951008586
 17.9134312076645585 26.1927581317676434 10.4513565050605539
 19.3121705516352513 26.2067822034527680 11.0711886096067627
 20.1367637580943359 27.4270078993388786 10.5061965324343412
 21.5310500701820864 27.7141146627744881 11.0924305423198302
 22.0455856945536901 29.1018910668065907 10.6164970254896716
 23.5326931615681723 29.3113257230922706 11.0992836066656348
 23.9967355143292274 30.6979356097986518 10.5445935122381140
 25.6461928185500021 30.7920419747183303 10.4192594425401879
 26.1141717824602040 31.8696579841265830 11.4803891962090638
 27.7030257141746219 31.9586898752723201 11.6326829285872044
 28.3837548443177141 33.4266969667098053 11.6137709931776882
 29.8001325541477655 33.5164526320891909 10.7841211929385654
 30.4486701577495076 34.9060598278870984 11.1862693839443512
 32.0962562685579087 34.9732788675926685 11.2480926355535367
 32.8554034092433938 36.2216558386988510 10.6218866346716254
 34.1707471187337788 36.5348445298459836 11.3995769478340652
  2.8090897054985970 11.8091329485650967 10.6322290321777100
  3.4547319399513494 13.1059729719830802 11.2769059407318455
  4.8534179964380719 13.3907894375334209 10.6572002927969578
  5.3549136748485218 14.7307474474044593 11.2332886412413888
  6.9705896164937817 14.8502443105491650 11.2087406728824384
  7.5571516108578036 16.2265977553661287 10.6753762549281443
  9.0134043713428333 16.3153757076916435 11.2607349134905270
  9.7792057298361925 17.6021510937663628 10.8564092951332256
 11.0882062510229638 17.8025160289212465 11.5975655843575236
 11.7257359318201875 19.0167540304545390 10.8973288690665235
 13.1886392710124749 19.2167087941946235 11.2891809775716112
 13.8141540575834032 20.4645558836693695 10.5818671879411177
 15.3503442015586451 20.6632050941592738 10.6859868277809529
 15.9023410145684476 22.1177627993533754 10.8388060903751917
 17.3663137993137617 22.1443282226158971 11.3035055797194932
 18.0525412298628893 23.3217303080753489 10.5876757054733766
 19.4891452420479290 23.6253485517654767 11.1332568652561577
 19.9779980090939056 24.9361343026851934 10.5760278870827200
 21.6303111021727723 25.2187974667007389 11.0380962631762358
 22.4419161050393967 26.5683448852161384 10.5458102014090116
 23.8495470963868001 26.6545232819895830 11.0323689640913774
 24.4352599054879676 28.2264712590102818 10.5622991450469730
 25.8642984890660124 28.1610512702138145 11.0736457328336577
 26.5711495739238899 29.3656072048686951 10.4539537858788290
 28.0758289034303203 29.5596884004151796 10.5771769150001411
 28.5322688234258983 31.0267786707314386 10.7170324144370337
 30.0190075103973406 30.9369649410591450 11.2558658660237558
 30.6826658513834651 32.3670710227980436 11.4645101819595343
 32.2974136687616209 32.4412406545704854 11.3463096644622148
 32.7384207709867638 33.7112548441005515 10.6506425286655517
  2.9514213362093802  9.3693727765909358 11.5124835470231996
  3.6572192127281449 10.4261842395104090 10.6920363975255182
  5.0827584575040730 10.6799863253561860 11.2071044149616377
  5.6148200395415602 12.0193034269695662 10.6792416174050899
  7.0982255284621294 12.2741318495764649 11.1748919494746346
  7.7232342013735353 13.5875145005833069 10.6061556369771601
  9.2199235580982659 13.6848719792366342 11.0171362996604536
  9.7538328690549072 15.1086566968425693 10.6367173860576489
 11.3045072477275124 15.1582958338248428 11.2185782742346412
 11.9500145706574514 16.5583396909776361 11.2110576921311242
 13.4603988080833350 16.6763176754106297 11.4380060016253111
 13.8687369913344085 17.9440090733473561 10.7232770137505700
 15.4782110087112894 18.0868465099035518 10.5592534938118607
 16.0500974085924319 19.4344983748147051 11.2675461491954341
 17.7041771614756982 19.5938410075457554 11.4171401208481740
 18.1989748455016702 20.9124446836339537 10.8397728415525059
 19.7373254869463679 21.1948536395192555 11.3607423175791613
 20.4176818937279947 22.4381824141045954 10.6685336618340241
 21.8816692728888782 22.6882547820913523 11.1255581494372624
 22.4083164673589934 24.0363225320174578 10.5591862269449663
 23.9753292210532187 24.0176034414503441 11.0582032713601137
 24.6195797679251207 25.2612771493531874 10.5520613783714783
 26.0490633481825284 25.4768533844705765 11.1127289734918122
 26.5071586329573385 26.8300461299077249 10.5243913268091553
 28.1458687565578494 26.9512592380464433 10.5573667980105004
 28.7302463997711079 28.3628997343015783 11.2384650495490241
 30.3545363168492486 28.4459419654840708 11.2670807081605613
 30.9387793121341055 29.7871587736141485 10.6317459468835160
 32.3915590854547446 29.9706015500488689 11.3252877489815234
  1.1558766797828630  5.3649513160041513 10.8928209276589243
  1.7617454258275800  6.5689001754951066 11.6137686438030769
  3.0704729568528082  6.8883889032194618 10.8769822600412862
  3.8708517968237812  8.0561566029486027 11.4967029394810414
  5.2382895146538280  8.1077432949355668 10.6692743714946197
  6.0013110332893591  9.5513122779723378 10.6354999906185714
  7.4160323996377713  9.7546492131153624 11.2044435543293499
  7.9874577260073183 11.1414055190906609 10.6319942329318202
  9.5326588190237551 11.1591935065606283 11.0178071125382075
 10.1623951586540358 12.4466498607625145 10.4985976737284368
 11.5811778962922425 12.6462214782938229 11.2273221581121696
 12.3015871531914573 13.9254791712035146 10.7225152407760440
 13.7277760966439182 14.1745617270408957 11.3095351688995365
 14.2795218624413067 15.5289357325848680 10.7684839911388170
 15.8062815396324368 15.5611044305698591 11.2918242543104466
 16.4748137938212835 17.0194405470527670 11.1959341602714293
 17.8975893840830693 17.1768916998581709 10.5098494174211652
 18.7005220286148379 18.5293814767573402 10.8757419245978468
 20.0736684007611466 18.5942645080625262 11.6065979541720736
 20.8135476033170654 20.0271510958836672 11.4826813512056152
 22.1290212347197581 20.1301398016823505 10.5848647314794810
 22.8334750565176705 21.6078853721974085 10.5488462652740118
 24.2923901193240788 21.5021782777826935 11.1121892996257223
 25.0486030648695639 22.7045017264064803 10.6096980223561328
 26.4307545372381050 22.9404846196408947 11.1466925950092772
 26.9935258861540355 24.3246359756468635 10.6616304496708807
 28.4098372849533405 24.3527908836030917 11.3529184962991412
 28.8872538657244249 25.8667694061074691 11.4614334600759840
 30.4960983649073114 25.9378622062663169 11.5786213670999594
 31.0822465045722645 27.1795680085563234 10.8152518498068293
  1.2271698433993792  2.7930778397023168 11.3032257153760263
  2.0241183897736117  4.1141162079711258 10.8424546445150138
  3.4307472130245324  4.1677682210408982 11.3491293041621173
  4.0458131069041832  5.5040707575077112 10.7503901593511202
  5.4955833485658676  5.7000745124620940 11.3704034739331128
  6.1792270676297969  6.8937506461696376 10.7034330894224219
  7.6931572671245565  7.1623719020826790 10.6142357429559695
  8.2373678471784348  8.6498249550090538 10.6011621610384896
  9.7309020384390035  8.6363237246145967 11.0258374505323342
 10.5203706901621068  9.9154307686379806 10.5912633852010867
 11.8954680537270683 10.1115397518375385 11.2722670926277555
 12.5156642035128680 11.5281189885262556 10.8720015501650611
 13.9433414555310957 11.7012709324793036 11.4746124391146527
 14.6901216906756389 13.0194793214629563 10.9162137529838557
 16.1313807189999956 13.0366346961422970 11.4216833981974002
 16.7302918528808107 14.3501705449701156 10.7875707467453594
 18.1469214844013855 14.6259304433915815 11.2679591727180899
 18.8338839640948876 15.8657975841040759 10.5249777085012397
 20.1624992097394973 16.1099766376875131 11.3150397521509394
 20.8725212946628744 17.4664464400790607 10.8584910572952236
 22.3429620583329864 17.4631258911747054 11.3232157297282949
 23.0703986082323382 18.9186500496724257 11.2882048362137830
 24.4503313705056300 18.8839420913489171 10.6554149593764063
 25.0208179014768994 20.2977013059299054 10.5076639497268882
 26.6390536991318960 20.4133251908244233 10.4470789908018631
 27.4061402402034773 21.8360659855152015 10.6218712770078731
 28.7783509305803307 21.8137183162166863 11.3083467648805591
 29.4179214702096878 23.1569902193319628 10.8409431623637147
 30.7989353921003755 23.3835139874780964 11.4215632567568353
 31.2378382619774584 24.7818395509274545 10.8605876718200260
  0.0413462576947174 -0.0300679494940960 10.8597957359159860
  1.9714717113851563  1.6148583406545201 10.7443142855722122
  3.5343530674100481  1.5786893239020441 11.1644825458209560
  4.1763628657238856  2.8810087075593254 10.7163346390970950
  5.6436794036179121  3.0131517426004160 11.3024182885765168
  6.4337706179166565  4.4159631771425500 11.4240808799778311
  7.8158000375211536  4.5622863942183880 10.6874232046373603
  8.4140435106969864  5.9690419157201093 11.2510257573981178
  9.9734264279555234  6.0260103507736034 11.2001724153616244
 10.5056889376054805  7.3847384292578573 10.5503049827735769
 11.9797576495083717  7.5748150761886581 11.1984899899554993
 12.7212883572828819  8.8792130975032695 10.7475088703646282
 14.1236929294962223  9.0572587695172846 11.3056614331359562
 14.6737830438837449 10.4870696383634439 10.9299779089623712
 16.1815976425301038 10.4626247320649970 11.4550031631846423
 16.8172430754327884 11.7216753396530038 10.9193209250607861
 18.3324093325974893 11.9742018109583146 10.7344831524534641
 18.9971428265548639 13.2391818553458993 11.3317730230800731
 20.4845973941188717 13.3989227477702677 10.7971865890326040
 21.0538393699971920 14.7428593148479123 11.4618042667584330
 22.6557998371733014 14.9301234839519825 11.2939971543508531
 23.2241400387791685 16.2921287998627591 10.6852287253537526
 24.6957973921981129 16.4880362656905071 11.3525243175876636
 25.4526719832465673 17.6843855695122087 10.8014770025996594
 26.8244481488679831 17.8389026476989727 11.4429940351776089
 27.4234148246213358 19.0904838755957513 10.8563459755836860
 28.8742855273645915 19.3100278391110827 11.4523586664662531
 29.5158353570217500 20.5446334889927904 10.8227578450744026
  6.5401087453060782  1.9187176196657831 10.6766245865381055
  8.7291282168535709  3.3627235686596566 11.2442544004334053
 10.1115356992473977  3.3555487539785247 10.6141604996209207
 10.6255995085129911  4.8096541428702562 10.5438590810525685
 12.1538731656941330  5.0272664646834446 10.3904964082074436
 12.8587566463196392  6.2599436457504423 11.0801985318092733
 14.2943546263469745  6.5372157382800129 10.4133495065958499
 15.0144721380554351  8.0215447456483950 10.6153210391373403
 16.4705172712279193  7.9461840436516979 11.1754620950675676
 17.0494799979601339  9.3043600454662414 10.8065198536069111
 18.5336385350288175  9.4826617606093038 11.2378071109714508
 19.2717132616895483 10.7116148911007585 10.5906057229940842
 20.6979121438113012 10.7121059311679030 11.1860130317979607
 21.2954581335630913 12.1846568541605844 11.4440665516579418
 22.9114213510028684 12.3230609452932356 11.3571455154145884
 23.4036480030346610 13.6639553174987505 10.7628620310179031
 24.9409986820892442 13.8497307914080476 11.5255629470896164
 25.6939356562949008 15.2430634841267771 11.5270224932462906
 27.0313176747824535 15.2803837796426318 10.7061823021456455
 27.8255017267205140 16.6103495953189650 10.9424520174907549
 29.1480915885899101 16.7771402076551226 11.6647735673616548
 29.7568079687202847 18.1366709276723981 11.0203467359932414
 15.1825086370766691  5.4078040200926054 11.1125522471412097
 16.6094237713290447  5.3849023770254441 10.5450967347868136
 17.2231272614519391  6.8125726001904132 10.4388623099742848
 18.8253588429690026  6.8982569214665741 10.4666398748161544
 19.3876065785119387  8.1026512553395182 11.3211652700913348
 21.0217086012436560  8.2282005222659453 11.1376851384558311
 21.6154170842346609  9.6026989211127525 10.5228938634720013
 23.0836057265446115  9.7819402398813455 11.1712783812894525
 23.8429687896765330 11.0878043769672008 10.7502724584069593
 25.1898994792241773 11.2620858607646763 11.4627584897354993
 25.8044480992343743 12.8034481148325732 10.9109844517103411
 27.2391033553821096 12.7624935989323589 11.4262019337805487
 27.9521005458879053 13.9568257146325720 10.7709052080104843
 21.6927104946460787  6.9334812652327873 10.5803523077265229
 23.2928558656244142  7.1785707919126809 10.5475171850603058
 23.9745723095757732  8.4107527080219722 11.1801816161266441
 25.5083432761423694  8.6014166801486081 10.5986533749386318
 26.0187399013010179  9.8114145338399190 11.5356911116676066
 27.5424165068207820 10.1074950755669164 11.5628111459388805
 27.8822934199590158 11.4560018732720224 10.9358954444940970
  3.8740795152143153 18.4236910719314331  8.5210602505462933
 10.2214532525965751  3.0781346430524779  9.0773286861536118
  6.4611319443004289 27.5149294534349522  8.7138947559566944
  5.2385001332479675 20.8473126030843439  8.5818225469712459
  5.0498485207468926 22.2666627542145683  9.2365502139804523
  6.4586263921547555 22.9618009985732812  9.3804942016434403
  6.4340763799585110 24.6094887837193568  9.2640403335885146
  7.7293998502078871 25.2095247098254269  8.6241540119575362
  7.7961262800340236 26.6719735678126000  9.0411411465742297
  9.0815411525432559 27.3880142335564436  8.4883896617433869
  8.9942694155392946 28.7788052307418631  9.1145254591797276
 10.2294934381166414 29.7313956698189656  8.6587112455759065
  2.6384948922752325 11.9455911149892646  9.1077222052784386
  3.8797011434246840 14.1310514523744803  8.4254692783256111
  4.0602547398678093 15.5850704856397702  8.9818870197664751
  5.1753191195388206 16.3192616351218298  8.2232602634765755
  5.2190441232133793 17.7094343086886923  8.9649809480226317
  6.4121647141946765 18.5698585356830392  8.4953587428703212
  6.4620368527749870 20.0217165025157264  9.1601709333448902
  7.7439588175895144 20.7588416418395774  8.5403724181331260
  7.6844607110821350 22.3832419323121172  8.6425379531663893
  9.0541179280765736 22.9888428385415367  9.2583108253553998
  9.0433364874086664 24.5990718750994972  9.2241594821791768
 10.3285001115517652 25.2112453770384874  8.5817657743026814
 10.4458845155426356 26.7035765310931446  9.0273019366389544
 11.6142311372527285 27.5414374546379150  8.5198633095655101
 11.4917120520396256 29.0306971731955201  9.1065460342600186
 12.7615854649267835 29.7679697851287415  8.4731417207186244
  1.2452274793333302  5.3592460901402283  9.2823965043033905
  1.2684618377514374  6.7834751953276049  8.7946882029709439
  2.6241816968649991  7.4257107894554490  9.2545508448182172
  2.5791979692006515  8.9634212133060025  8.7654523298811977
  3.8295914738451766  9.8224150023934236  9.0886960872223117
  3.8792195916856183 11.2348436313723425  8.5236214841921303
  5.2521070346091800 11.8787367485011579  9.0524129519630296
  5.0885169715681942 13.4163868294599613  9.0544175386423671
  6.4511810853247047 13.9659379958986207  8.4271775846150110
  6.6159186927274121 15.5613618280741388  8.2497894442175621
  7.7825923125379974 16.2439144003852896  9.1241680128364422
  7.8393428741078877 17.7798111619381736  8.4795360424995803
  8.9615700129820954 18.5873944598334475  9.1216358606378360
  9.0841887726197488 20.1465883853968890  8.9853436504431237
 10.2793427321557740 20.7120863252206000  8.2167267648937052
 10.2108584989876103 22.3347424486452191  8.3006754036571504
 11.6649207316854060 23.0267452030851736  8.4353888844454588
 11.5786304526340516 24.4302981971297406  9.0845326474952106
 12.8317467269020469 25.2930588377316425  8.5000386720980039
 12.8955979460877366 26.8101125879090105  9.0667216479789996
 14.1691680986959501 27.4659913595933602  8.4473469812896180
 14.2107056037246320 29.0669143294228647  8.3292857972549168
 15.4451163951863748 29.7670890868912110  9.0050171791462486
 15.5232215814691923 31.2580143266429964  8.4503934869341872
  0.0251392301512162 -0.0176507655579478  9.2852286888893918
  1.3144902664595375  0.6420162186837313  8.6690920506634139
  1.4910212888832535  2.0800773990222345  9.1821890906978414
  2.5927318365735665  3.0138223477120052  8.6364589466376991
  2.4654642836741636  4.4249936980006037  9.2732204604937838
  3.8928638817300460  5.2732235877667861  9.2175697533466590
  3.8328168266208564  6.7569617479070185  8.6439576751300287
  5.0661615913681413  7.6115791257591781  9.0827931432641691
  5.0973589148148859  9.0080066896368542  8.5088005522608370
  6.3653444845618674  9.6482648474832935  9.0917724168311516
  6.4742182725514184 11.0966631651806473  8.5325016254788810
  7.7996197067871211 11.6803892011288859  9.0771158865428134
  7.7546111933957445 13.3368699797472487  9.0785693230017426
  8.9985480514704879 14.1052439710579769  8.3196301841226461
  9.2207831277995584 15.4558499108527272  9.0719403865885724
 10.3291821906459607 16.3795186115148113  8.4888689683852441
 10.2872257000281166 17.7416305069296634  9.2650825475898060
 11.6444633241764066 18.5987818209363276  9.3718008779538930
 11.5031384804575616 20.1660471039299800  8.9514652409605535
 12.8525448936307729 20.8339711674784240  8.4065824255809645
 12.8531210111665821 22.2068494868011186  9.0223933510228598
 14.1904329729255636 23.1545714113537748  9.2308133293762022
 14.2125575481162763 24.4602136790790716  8.3806273355097129
 15.5484371321892514 25.3747016692218601  8.4552232408669834
 15.4050666021874054 26.8145942817283363  9.1011783050174841
 16.7822865389037581 27.5532753278439309  9.0222813262341255
 16.7137389457834047 28.9787225288204517  8.4106604783293655
 18.0510841621406612 29.8642904473688411  8.4360134249236562
 17.9805247907009580 31.2149706458080693  9.1956217366437443
 19.3717516817328104 32.0494706662059983  9.0920525722047216
  3.9187930535798317  2.4355049416845072  9.1177104650221263
  5.1267389166415427  2.9815653387089260  8.4351840429364895
  5.0437266128264833  4.5735986941697826  8.3828686168598363
  6.4512925247865125  5.3242912288117310  8.4795519826089052
  6.3508721993841437  6.7206348277213257  9.0971499747699358
  7.7438567695076754  7.3447239936621642  9.0392978995463267
  7.8267710912488289  8.8785758809924591  9.0645000655461292
  8.8986574577606490  9.5556704360880502  8.1452100539392127
  8.9766290374967177 11.1911422126855022  8.2767263874507346
 10.2901830553058034 12.0268620035240925  8.8775582723685584
 10.3447288653890510 13.3215112765853565  8.0671069676072396
 11.6849620227119519 14.1590274373676799  8.2258107513119878
 11.6181630916054619 15.6491686848307960  8.7315437008039396
 12.9241685458451769 16.4153271028922028  8.5615219068875259
 13.0614622415554749 17.8655452963862693  9.1929423166786961
 14.1872617705309167 18.6880757293879753  8.5215480815489997
 14.0686533577020967 20.1455889672289743  8.9999688928053150
 15.4893663591664517 20.8359658123221188  9.1308794016175554
 15.5750329879540317 22.3900509106894212  9.2512723129362460
 16.7561289122767754 23.1157970090639076  8.5408099658109489
 16.7968045114041296 24.5910775203491170  8.9258855211453962
 18.1093068967727113 25.2602589466374212  8.3405879498437923
 18.0452956784058074 26.6639731803025626  8.8797383239038687
 19.2266858744889113 27.5314513000487757  8.3911479825839859
 19.2213527794427605 29.0122003723326713  8.9627215721544236
 20.5819447305822827 29.6775356300204827  8.4528844283093996
 20.6402826419864240 31.2534838531198744  8.5187403348502357
 21.9608904783263092 31.8330111739900019  9.1607474705231482
 22.0467950808469269 33.2889548632752508  8.3704382333643448
  6.4375062017532407  2.2097489250854663  9.0716537798904646
  7.6492038231141715  3.0307720688559701  8.4978901529681430
  7.7298819566764285  4.5174847322125631  9.0682958507844695
  9.0380148261942033  5.1587992485539527  8.3970989983784090
  8.9877232749225602  6.7205652198905872  8.3620809972930790
 10.3381911864678315  7.3879096388805037  8.9058852838004228
 10.3180925019545651  8.8673139730850412  8.2690289782892599
 11.2680375735373417  9.7124562542757076  9.0921188708015688
 11.5552209691655534 11.1579507740600707  8.6102494347684289
 12.7759504854825963 11.7639666793954181  9.3811419104818725
 12.7111691048741715 13.4836456527261532  9.1960059021582570
 14.0887415001577008 14.0885660997267710  8.7161876695769358
 14.1569111823233200 15.6076466103355660  9.1328006754406363
 15.3695212306089246 16.4069779884929048  8.4705706054663157
 15.4952857005143549 17.9708271023012749  8.9966629967987988
 16.7747264949749457 18.5833883904565589  8.4288082099665065
 16.7848469025915357 20.2468798077859695  8.5643302605893137
 18.0819753920143036 20.9277756563901178  9.2793752474673905
 18.0871128676926247 22.5671850524454776  9.1255455301911841
 19.3725373970952255 23.1121311016785995  8.5141220764839964
 19.4697401419908047 24.6215075125969989  8.9453563256397821
 20.6928896188586755 25.3272699145393929  8.4977262066871422
 20.5081812451135583 26.9244066997203255  8.9524123819741366
 21.8240363219576352 27.5476961171352350  8.4694462278077403
 21.9051229475586737 29.0129820420018198  9.0233327259224758
 23.2033595156013313 29.6247471687520871  8.4700787915091293
 23.3682289138663180 31.0197600414355286  9.0628070796486231
 24.5272480105755584 31.8919255913802395  8.4894362185893648
 24.4699402795090464 33.2936527915670908  9.1714213552648634
 25.8241227405554739 34.1224439487573079  9.1690272585736903
 10.3390965042306107  4.5937876490317757  8.9995493164528053
 11.7648096710393446  5.1995205186019495  8.8564054521473548
 11.5712601777665522  6.6184940632731362  8.3031538908212354
 12.8998088187121738  7.4549425199295936  8.3791864889001868
 12.7387419191922699  8.8977541710645092  9.1871530171365663
 14.0817155773785974  9.5846868384970954  8.6902540806481614
 14.2385643669328026 10.9331852852289977  9.3394156155056010
 15.3737376088812674 11.8202287380021573  8.7705437876081600
 15.1912195447692486 13.2599022195208747  9.3435396153245716
 16.6232500784791632 14.1127191603020972  9.2631561178742459
 16.6245267567685602 15.4374480793448559  8.3705305416282876
 17.9859179770540010 16.3140267273678887  8.2671317285899857
 17.9219884035472994 17.6846084459748418  8.9933714438388819
 19.2036441838551859 18.5937562824597080  9.3614798135725028
 19.2304611566545773 20.0146748490927315  8.6574829767440420
 20.6222724194870146 20.8031136509961101  8.5433941968273928
 20.5503920185362823 22.3042993061234007  9.0798760696656817
 21.8623891668795451 22.9565649438607231  8.5007482606944702
 22.0385763093229237 24.3882561252602414  8.9918764436532062
 23.1707199847076240 25.2656006422245802  8.4537492081496470
 22.9694762053211612 26.6881276230873112  8.9798523178357659
 24.4587400679892149 27.3785010894309764  8.4942837642400093
 24.4516873117416438 28.7933196263437878  8.9342354489617737
 25.6927946969328538 29.6503402413754742  8.3389824885307693
 25.7648417428282421 31.1267490491432000  8.9237561179696261
 27.0786215162201174 31.8104625981603846  8.4779542510435881
 26.9708820875354007 33.4273238479038852  8.3525148197906880
 28.3637165792438104 34.2368437546909377  8.5376718403673308
 12.8011065294281643  4.3348897345219530  8.1701458207803057
 14.1897203548810911  5.1294341046448508  8.0720520660397508
 14.1904743253619330  6.5422465907142371  8.8332208547702749
 15.4586607437422590  7.3534515231585003  8.4118928097317696
 15.3021628638714642  8.6965284257224571  9.1729115202728551
 16.7346619811340851  9.5636479605711671  9.3201778227953724
 16.6752633765906033 11.2337705611585168  9.3366677640800031
 18.0389874996691226 11.9335405767285536  9.2057961126314787
 17.9096191146069827 13.2979551968943284  8.5678929358790175
 19.3065818453553462 14.1618785919716803  8.5595108349745992
 19.1727449954724172 15.6192224191329281  9.0252988288714278
 20.4645701037365448 16.4330645192080844  8.5704464188748766
 20.5980900632351762 17.7771129517385624  9.3529478187926021
 21.7742701872241113 18.5655416628114445  8.5889931607446233
 21.9169579623071336 20.0032188072588113  9.0557643924648445
 23.1841547802583960 20.7243504179518041  8.4373672869042693
 23.0768206287600499 22.1468527910601125  8.9823236404955313
 24.3644527875192054 23.0914607146104807  8.4995016241139343
 24.5033865087170319 24.7309900872146287  8.9886833486492392
 25.8277591714193946 25.2941180047285989  8.4887666051611834
 25.9240965306200621 26.7499875181527251  8.9673540506978089
 27.1011410153746901 27.5539552830051626  8.4160198576497773
 26.9395110351772438 29.0167246068089284  8.8897558515066475
 28.3422081604496157 29.6791866427003725  9.0453082735806625
 28.3959441735946569 31.2397631966727971  9.1559584729226806
 29.5683246232157089 32.0303224102021602  8.5330922085426444
 29.6533577183259140 33.4660629505616640  9.1847950020252522
 30.9470013825049293 34.1265244148724634  8.5327293665558770
 30.8233628799710679 35.7056950466023864  8.2279717247560189
 32.2234239160985254 36.5429548470142009  8.3359279097885128
 16.7024945655720138  5.1512452685598680  8.9993111837084587
 16.8010832207360004  6.7056494585873532  8.8504786255238699
 17.9694321942639910  7.3524624154143572  8.1539633230403101
 17.7490893397058898  8.9715190686522881  8.2284105900563311
 19.1199553037361270  9.7799107895516144  8.0959936481509693
 19.2576686318610939 10.9934936937803904  9.0448797570892587
 20.4451150228652558 11.9191564762746740  8.5569822074148210
 20.5398064982620348 13.3795401252544490  9.2103787219004314
 21.8788867464648362 14.0402140931629731  8.6060679227739350
 21.8989942724748765 15.6520102184709593  8.4141198821550667
 23.1997366196347556 16.3515818413470875  9.0687493151073664
 23.2303654725724087 17.8374450390746127  8.5250518187170883
 24.4418517120053487 18.6135663839407606  9.1094093993809437
 24.5381989662505156 20.1347247723314773  8.9067825731570505
 25.7136301166884849 20.8556107057462334  8.3033165944386624
 25.6052580981994709 22.3733197851789924  8.8914136640342356
 26.9510416076664825 23.0586216477802317  8.4887735544655936
 27.0475013882890067 24.4881774962944974  9.0626588209239589
 28.3146490576622760 25.3044117772222954  8.5248130641800799
 28.3639999027374152 26.8271698703688060  9.0294069191942370
 29.6847982205280836 27.4177140002854820  8.5444942008133022
 29.6223151987274420 29.0417769204064342  8.4679220536254540
 30.9344037159475036 29.7639813724893223  9.0075615137934086
 30.9528315056993186 31.2429169303506029  8.3135501143761878
 32.3430523950760147 32.0628345957772041  8.5090757216958011
 32.2999140537908858 33.5472941211643416  9.1171482754454942
 33.4984079540758728 34.3112099745081451  8.5976401741617288
 33.3679888756699157 35.8135806085357373  9.1043505536771345
 19.1824785394444888  6.7972365266165085  8.9259792192301770
 20.4905180288377586  7.3481928801861676  8.3328100793581843
 20.5157288112774125  8.9366547958262821  8.0881868808115982
 21.7304813058843784  9.6362669821671769  8.9364210577242869
 21.8095752811260439 11.1032645540615071  8.3486569312372616
 23.2246521131604275 11.9153436792815004  8.5427578808075513
 23.2225506418753689 13.4418641061576416  9.1726026084832881
 24.5297398956316925 14.0434280152509405  8.5767072534799613
 24.4621299049577097 15.6651135939389299  8.3890324307953286
 25.8612135687265834 16.4157893452931738  8.5535713633780546
 25.7701098737246603 17.7886891919583725  9.2618954962892470
 27.1057427742733914 18.6599559233737651  9.2188613077634720
 26.9453201454523565 20.1643198449924803  8.9234339041760506
 28.2709304265267107 20.8073673053621704  8.5421104711012248
 28.0723312538897218 22.2406898722709911  9.1160013854038642
 29.4783443536662304 23.0551741157246290  9.2823442998813057
 29.6925584510334204 24.4947902120294501  8.6439511805977141
 30.9378874980251375 25.1763429675762218  9.3396606619013607
 30.9527461127108339 26.7916927242427896  9.3111869647409744
 32.1576789697762919 28.9909829761747986  8.3643882554428988
 21.7314918449360022  6.7231516956494959  9.0490327802350539
 23.1888795455026724  7.3903778001355693  9.0040774681397870
 23.0475660802652413  8.8622097698402342  8.4889465672674742
 24.4424078651105674  9.7178108674132204  8.5516879476372694
 24.3236063060640930 11.1137144218419817  9.2313593568016756
 25.8270854886840304 11.8452072854019548  8.8443984662944573
 25.7828525723599675 13.2937129625798942  9.2513475895993800
 27.0250815142279208 14.1002089180743582  8.6125591364549035
 26.9583268915225673 15.5451558119318474  9.1610972594976108
 28.2493163021933995 16.4729799347240657  9.2531847197515038
 28.3184697193587986 17.8982579150463899  8.7228574626857753
 29.6187797218601681 18.5141404278368853  9.3688314338568759
 29.5095980221740781 20.1464970249668873  9.2762792089656294
 30.7270710715269395 22.2858589426816032  8.5800157484859039
 25.6498136216795842  8.9302495230001071  9.1005696774526523
 27.0785887441047244  9.7072511034540643  8.8273829468002472
 27.2148998612889663 11.1897100862216750  9.3758597997166842
 28.4288312955934686 11.9124519906952919  8.8096885610555002
 28.2541336259576035 13.4872701366934411  9.2268281006792989
  8.0253996473190412 29.0612440158461887 12.6457173791718720
  7.1863206463170677 26.1308905647459362 12.6359876245481217
 10.3144250508434645 27.9668809359242232 12.5359675045422403
 12.1153425454948991 29.7377099887556042 12.6480230363507822
 14.2911903442375898 30.6282421530074664 12.5570108458560554
  6.5587256426014253 23.8555138067669752 12.9180587207240478
  8.7060035951875481 24.1337584234286702 12.8396862723263556
 10.5520879228765896 25.5458180335823144 12.5357655378854211
 13.1813725353193938 27.9420145729335623 12.7188078298382550
 15.2986153613060161 28.4558858271625716 12.5001539529013428
 16.7278039660794668 30.2440802015631220 12.5878927758834891
 18.6735473864707657 31.7947433831306299 12.7319737810607965
 20.8074068856798782 32.7150205854442930 12.5664618881251933
  4.3137721628298769 17.8054923890445878 12.5620418138838374
  5.3202821775426861 19.7079617615372982 12.8079966289811402
  6.8557133557329708 21.3607734120721595 12.7407273846357576
  9.1376402659199876 21.2495292801316715 12.6315980930578124
 10.6306747356522742 23.1446610704010993 12.6287950911839850
 12.7491146275999121 23.7394899515378661 12.6091327216561204
 12.9426201129965399 25.8703769561731995 12.8175368106977334
 15.1720118579826480 26.2167442916756919 12.9446353343657758
 17.8692120736193445 28.1919044425411514 12.5282545795781530
 19.5944934591414999 29.6588634942772948 12.7094145915742267
 21.6630473101311765 30.3836978087377290 12.6062773452815176
 23.3563870832011240 31.9700267638839755 12.5955908763830084
 25.2293271240960699 33.6163198000135495 12.8176681557263503
 27.1278643714603476 35.0823859310850139 12.5861835312354220
  6.4534113690878767 17.0087970930986216 12.5276734502192362
  7.6310530171209354 18.9762497527646339 12.6282714565128735
 11.8358932450196335 21.2585665612016044 12.5769813564805482
 14.9477968450102647 22.9637478876144812 12.8913554035324811
 16.6561807307638539 24.5698023279734947 12.6971071205803518
 19.2869320823377457 26.2206796163071729 12.4490014338083466
 21.5162796743449185 27.7044168603442671 12.4739654394084916
 23.6301271271566335 29.2853076619001200 12.4767153352056983
 25.6767597708756767 31.3147776739061321 12.6707406446759823
 27.8537054417890282 31.5146414298414257 12.9214872526565081
 28.5590907997729389 33.5526718582178418 12.9625467282355391
 30.1181615458124163 35.0042131277832240 12.5176206772516210
 32.3833326627031894 34.9674076834017171 12.6000229584735024
 33.9480921211292284 36.7485248158583957 12.7316468769595499
  3.7250169237278481 12.7331936049318806 12.5863698579747965
  5.0004486361520684 14.8182099468937558 12.5683270928163111
  7.2687217991853448 14.7710577412414885 12.5461746154412666
  9.0275560935954058 16.3333031906671522 12.6429523399734300
 11.0040518396223561 17.8988062282305407 12.9635570735377801
 13.2555867861758969 19.2762243897313645 12.6647300654632424
 17.3043794149612751 22.2160862379055004 12.6780894501581951
 19.4647551660348341 23.7369758640417992 12.5096691187089881
 21.6044612159141742 25.2803604034168501 12.4104586322778321
 23.9016396057956086 26.6602756581841298 12.4047123303259497
 25.8884940078830112 28.1857499847075452 12.4519936739972596
 29.8238107315388312 30.4874631519347545 12.5469819381472956
 30.5314112266394559 32.5827277857894657 12.8087359491552437
 32.6936866475788150 32.5295353255255861 12.6537647266041446
  2.8538160362377809  9.7866696658030676 12.8241278212186263
  5.1380847564954832 10.5983306822695837 12.5841656812000640
  7.0065211993509564 12.3058901132650611 12.5505426392149495
  9.2613952340675993 13.5532800738817762 12.3907295887721212
 11.1634018092102032 14.9515533768067872 12.5920968806544895
 13.6888686686102439 16.7597250944909781 12.7990431362667731
 15.6263778304831060 19.3812262210492854 12.5810447333040116
 17.8731639267402826 19.6492689669149492 12.7822774324690265
 19.5300904537190831 21.4822486193781650 12.6893475050993345
 21.9048001314706831 22.7179048856396513 12.5055924369513338
 23.9366023897346452 23.9940659325138697 12.4313628388560744
 26.0147795865877427 25.4981594604846293 12.4930224614580307
 28.3450079758230586 28.4500418271931004 12.5561190936475864
 30.6913165645521069 28.3944565836273384 12.6162658522739299
 32.1347869475906762 30.2956752993429284 12.6410737444415950
  2.0438383976253527  6.2056948914772772 12.9128598754719981
  4.1206558654499172  7.8832910261474680 12.8364342607520197
  7.4637037294511170  9.8030366561291640 12.5731428165367909
  9.5396921514722681 11.1021696895305251 12.4046133126514384
 11.4444046096070107 12.6311461578567403 12.5982599546543224
 13.6114393727310592 14.2212910114102620 12.6883567266177586
 15.6673593358101826 15.3531503371257454 12.6416007677062936
 16.7238717005809576 17.3432880141988370 12.5190168952553851
 19.9634192855042443 18.4932609727740029 12.9629080971347541
 21.3318608890788433 20.2444643999252385 12.7430230898782959
 24.2722120214819412 21.4818901790632424 12.4927584620007224
 26.3410342115606291 22.8943574030420258 12.5276266781034806
 28.2715844428189769 24.0380426235889253 12.6842906988794457
 28.4428522208360768 26.2165960133190339 12.7205886355787268
 30.6397122952087102 25.9006000363168170 12.9357639604053798
  1.2745864770387754  2.8768398609329551 12.6795457051072820
  3.4803811938299725  4.1240791079058523 12.7196216438594636
  5.2596436983289383  5.9442738563949016 12.7034813125810899
  9.6448540999412078  8.6179056125544786 12.4184280229699500
 11.8659251322000845 10.1424722184312390 12.6462340716974495
 13.9324761371998811 11.7644758334763484 12.8491818830872138
 16.2373001665474703 13.0017040870335556 12.7990266015779444
 17.9856618271575037 14.9734984277212124 12.5903563520834769
 19.7833512062729042 16.3442173796291002 12.6135331054676758
 22.1578075133456096 17.2046961745701630 12.6723074793487083
 23.3188268890788883 19.2155605874716748 12.6079125650303983
 28.7503770962151073 21.7408940906618753 12.6810775070995785
 30.6853708443431543 23.5136473532042665 12.7861191910592034
  3.4380278813172098  1.4845488132673825 12.5295575975973623
  5.3793877204826348  2.8425072586977249 12.6376333394861700
  6.8268480941134921  4.3551551377890689 12.7416798124808253
  8.1234956708561334  6.1477859617599888 12.5956897400437171
 10.3806359986978247  5.9824049018564862 12.5226873148981923
 11.8304422221362717  7.7548177530041089 12.5504679437056677
 14.1063553002351796  8.8925370877124426 12.6769521195577184
 16.0753344760307364 10.4090683629749012 12.8222954349186153
 18.9621256265503177 12.9468639507751391 12.6875026970551215
 20.9244898636784811 14.5135868740654814 12.8060181950949765
 23.0563564604787743 15.0010028156437887 12.6156342840366875
 24.4663531591279302 16.8871175749332245 12.6614307821678782
 26.7558666070435436 17.8489138972950236 12.8107004281006489
 28.7230378493261540 19.3986082782536648 12.8140288158670987
  9.0167430092977838  3.6428427747587553 12.5753300525496989
 13.0391920888789610  5.8536466359107839 12.3849791913494318
 16.5526510780398368  7.8261250526689237 12.5480542388121084
 18.3468769636767313  9.8695542962803131 12.5666051095657618
 20.5389235670100945 10.2341026801241100 12.4712837530653271
 21.0824593477937405 12.2802826743284488 12.7885775198403024
 23.1644505334578632 12.3620320361293583 12.6938725129005903
 24.8550448398934272 13.6814115465615185 12.8766953993145652
 26.1919107311798314 15.4023491203505696 12.8181242269997178
 28.9949682753311428 17.0108201020568082 13.0089415451948849
 15.3480812596309484  5.7843842330219148 12.4339758955356423
 19.1663991258718411  7.7704992067802765 12.6391913251947940
 21.5099510317693472  8.1973879381885553 12.4359123971488419
 22.9092037086562996 10.0492992021517331 12.5174085060656033
 25.1683613122717063 11.4645522552642181 12.8093865530662860
 27.2722484105189267 12.8438521382846993 12.8054535547034529
 24.0904223219341311  8.1516281340699202 12.5129520695638501
 25.7910847549632898  9.4115383641783605 12.8194552190833448
 27.8665211168796532 10.1891280527981625 12.8962198304334326
  3.6652640050997198 18.0359591059137117  7.2253990118749316
  6.5348159682083846 27.5573759956797382  7.3340646901843831
  5.6180713221838019 21.1501465877549535  7.2910590565197069
  7.6826968609181927 25.1371661628315195  7.2517538847510989
  9.1098430133112540 27.3874378098639966  7.1179121285927902
 10.0669140051677974 29.7492359554500823  7.2993793653339116
  4.0426400130930240 14.1627531054805722  7.0588284566123649
  4.9193211383041815 16.3468215610706942  6.8822855727005932
  6.0924804792695655 18.7441643870257302  7.1577941491642747
  7.8064317058233650 20.4883002339784603  7.1822353228581566
  7.5294292492373218 22.7994151814882713  7.3409714607740666
 10.2023152670664459 25.1465631578620261  7.2094980277319651
 11.5959355891908427 27.6252155386808482  7.1498100077810713
 12.4146822355935349 29.7707483046188948  7.1471706154951029
  1.2033771173143046  6.7937323008586166  7.4018338227520752
  2.5068032040273507  8.9369563825540901  7.3791989349450029
  3.9191868920020281 11.3229649244228288  7.1521504734371648
  6.3676105987486773 13.4989410919414166  7.1236068191878488
  6.9835518090855411 15.7566827625398584  6.9466271400779593
  8.1594165380746055 17.7229502573359987  7.1441198047907077
 10.2818745813212473 20.4012608904490662  6.8841857550511945
  9.8139312214163485 22.6707934282555357  7.0291060197036543
 12.0212673210464889 23.1470101858958088  7.1060407877544014
 12.5003108589759417 25.4504710424600660  7.1748448933263740
 14.1118006698434133 27.1027562272900617  7.1189491140816408
 14.4531017271099369 29.2891265349366599  6.9947663066279855
 15.8761258328708372 31.1657926131717637  7.1136917199326239
  1.2490577929514584  0.6478587203956095  7.2903703042150108
  2.5671286354340173  3.0672606752664202  7.2590805705158763
  3.7992259654929534  6.8549188470116098  7.2683966623259257
  5.0198945384602709  9.0473627660099698  7.1387264086004238
  6.4664317497429451 11.0122850890926820  7.1585644077331283
  8.6368800432037443 14.3593680391576619  7.0322058821816729
 10.2118487826773325 16.5321456077835336  7.1144220348720104
 12.8064605495543429 20.8269313063928969  7.0381800084544430
 14.2625557740543609 24.0085062351009313  7.0740749736213751
 15.8568250918323130 25.6345673932961944  7.1230093508209702
 16.5852132032983448 28.6867778839142424  7.0606979758358177
 18.3303413160773303 30.1812440693775699  7.1189759702235955
  5.0295754053093233  2.6933946126532926  7.1029959725463971
  4.6515697456383664  4.7992590243718052  7.0850137034883032
  6.7848043629936940  5.5694769843185581  7.1474317779832113
  8.4709985844122961  9.3720494363291884  6.8533266565759572
  8.7857599518324143 11.5910058470703579  6.9801940470672195
 10.3845134065506191 13.0423021827357069  6.7320125857859914
 12.1229138349904968 14.2661588652208522  6.9306340336402963
 12.9561109959103611 16.5706604421301122  7.1799023197188419
 14.1291582627932932 18.7735605023831127  7.1465300276349968
 16.6609201288164215 23.0517883453785686  7.1669646866561214
 18.2122133078717994 25.1756009110288907  6.9770415655603912
 19.1465514461080488 27.5087517401085719  7.0103198692925055
 20.6088579685676443 29.4141257693696900  7.1066795873577782
 20.6797300253025966 31.6186129397768241  7.1874316301518935
 22.4950285488141866 33.0099744847271239  7.0944706160955500
  7.3149974730660823  3.1472167055592712  7.1610058681624098
  9.0963548960132972  4.7558251112003500  7.0708890229214196
  8.9387462902902843  7.0581150497897500  7.0275719022935377
 10.7849150318072091  8.7965302020774008  6.9755054250436102
 11.7883517864269702 11.1415829413311815  7.2489780425235351
 14.2712625412684595 14.0263530095775266  7.3517862260274063
 15.1489606159361720 16.6238270327401345  7.1300013147622971
 16.7609126661042609 18.4166080393451708  7.0638610234651837
 16.8251880281855435 20.6751590418592102  7.2528551224146875
 19.3385864049028129 23.0177015236015947  7.1360978012606280
 20.7640659006436898 25.3539059766806290  7.1228182054923659
 21.8841539261123401 27.5301734418011357  7.0877351044820704
 23.1458290645950377 29.6809069264570162  7.0894772745891572
 24.5713923894709616 31.9645697739458683  7.1135059530782332
 11.3247551453161464  6.3799277125291525  6.9596178576906507
 13.1267983365157619  7.7564208705777693  7.0627306012668445
 14.1384061921299331  9.7449069840427622  7.3243596169614582
 15.3917394894702113 11.8204769997665196  7.3950640903961808
 16.5031317193513516 14.9196419986435540  7.0996919945611303
 18.0894833678556282 16.4445494534086052  6.9134189599366405
 18.9278474754228085 19.7124336090093877  7.3419683135345570
 20.7842868906563147 20.9552678847608824  7.1909062818406237
 21.8297726606152018 22.9946356747148251  7.1188627057020319
 23.1674917303567227 25.2641518554260962  7.0744014658163197
 24.4622307318827943 27.2914867489758493  7.1202050748770018
 25.5746323483184383 29.5799106102286657  6.9762901890653364
 27.1406652365380658 31.3517399861255051  7.1609252017086433
 26.6148230352003630 33.5542992487477107  7.0263433742538126
 28.7552293423614209 34.4528168201632070  7.2345996959517560
 12.3930764140062060  4.0480435992620052  6.8901737926075377
 14.2481155994597959  5.4352193374134687  6.7382726748290063
 15.5293824578100157  7.4626349333306914  7.0432176421988428
 17.6526876772887711 13.0201092148787794  7.2445736280060080
 19.5733673209076358 14.3997256249414018  7.2170616891846517
 20.1987274578616756 16.8051564516219401  7.2764918311714633
 21.4141352995556318 18.6895153885548773  7.2666747245075083
 23.2124163521862137 20.6579319133199633  7.0570060768107679
 24.2719911368795493 23.1393538456367089  7.1231480168568115
 25.8054962277614344 25.2410819122508734  7.1064002041654355
 27.1479422333001104 27.6128197167088985  7.0360227327110509
 29.1634737187057169 32.2451266013221840  7.2327789628288999
 31.0477547219850472 33.6239865649836958  7.2467467582273537
 30.5962106606253172 35.7660551729567970  6.8827369350702146
 32.5385856702307876 36.7457422319909384  7.0204885932607839
 18.0523457198212647  7.1037102003086767  6.8085316050131297
 17.0770084847927137  9.2388210861068707  7.0503140103601991
 19.0103751236476235 10.2585422168118878  6.8165555829304738
 20.0515883430633295 12.2080945163519203  7.2666182221310081
 21.9239456076930956 13.5961719480212615  7.2962811917245709
 22.0850740691654828 15.7840280034689684  7.0656939752416363
 23.5037112880364596 17.8672709838565034  7.1663028305213663
 25.7321573160069406 20.8973206838718326  6.9344538743387201
 27.0540815454213117 23.0643041101657822  7.1082102301676962
 28.0988224327395635 25.3592668120233498  7.1721151070678859
 29.7348189917442021 27.0373494014153408  7.2228206667260153
 29.4870925283130028 29.2927791765376853  7.1104459144243854
 30.9676002334531262 31.0684849827216389  6.9635857644576529
 32.8653972192980532 32.1886639687396467  7.2332683876716777
 33.5473687695264147 34.4115670832576868  7.2299289571238878
 20.4630215730691845  6.8624613686869251  7.0490855439734332
 20.7462028743258813  8.9727853920942700  6.7435792984990162
 21.8000206059916799 10.9021108348436950  6.9949321547906189
 23.5976310736783610 11.9756969233041666  7.2305073179139008
 24.7218522090987634 13.7389636929897101  7.2553066739286693
 24.2966884087066575 15.7801708670512948  7.0386348004769053
 26.3220939275661685 16.6414135512872861  7.2630252917082458
 28.3775511946396257 20.7425316343849602  7.1712773147960318
 30.1057392993218293 24.3709993176160822  7.3277719237970995
 31.9687172053440491 29.0960410777005407  7.0115379469657988
 22.8891080418694273  8.6656095489222498  7.1373442324244607
 24.7249254736641682  9.8822636729885680  7.2156357142337706
 25.9799743617024710 11.7785712956681010  7.4836508906949319
 27.0393578406801929 14.0707986820276201  7.2402706409082809
 28.4021039920552560 17.9641989144280529  7.3438751374680411
 30.3319099614360468 22.0772028917938243  7.2753342646865633
 27.1802672846838931  9.7965269950897831  7.4571509267602680
 28.4580946907291654 11.9434590760447463  7.4315974951559030
