9488
Lattice="90.04918662194596 49.01906944497983 -6.356915556e-07 2.5650531280307063 102.5087113985702 0.0005461893806998 -6.13238217893e-05 0.0001123749984332 19.797345614104206" Properties=species:S:1:pos:R:3 pbc="T T F"
C        0.62243819      31.95949424      11.01235465
C        0.76609450      33.45348255      10.57892827
C        0.31366821      27.57153851      10.91799560
C        0.49943724      29.02778754      10.40527408
C       15.66132169       8.45370348      10.67447596
C       17.00197508       9.09646309      11.17435444
C       19.61046791      10.48847576      10.64931199
C       20.97763690      11.05017757      11.14120644
C        1.24446992      49.77602247      11.21558677
C        1.13289003      45.36865443      11.20187716
C        1.17119271      46.84914891      10.70930904
C        2.45950438      47.55226347      11.16662067
C        2.49758925      49.01587998      10.71602437
C        3.78872152      49.72262622      11.16823841
C        3.82876804      51.19376765      10.71489139
C        5.11414139      51.89509681      11.16443215
C        1.01431025      40.89356332      11.18570828
C        1.05713183      42.38346719      10.68352819
C        2.35335154      43.09733773      11.19351190
C        2.38857179      44.59317470      10.69580523
C        3.68227206      45.29797795      11.20078069
C        3.71378189      46.78160518      10.70560111
C        5.00552987      47.48357819      11.20630825
C        5.03963991      48.95769399      10.70869647
C        6.33647699      49.66057477      11.20482540
C        6.37201106      51.12976221      10.70291811
C        7.67940798      51.83414351      11.19604135
C        7.71601242      53.30590341      10.69100105
C        9.03429930      54.01661005      11.18656436
C        0.86822580      36.42390718      11.16114728
C        0.93328565      37.91671904      10.67002739
C        2.22832616      38.63468241      11.19668477
C        2.27823805      40.11976215      10.68920594
C        3.57625974      40.83424841      11.20088665
C        3.61671624      42.31912376      10.69268268
C        4.91427711      43.02762705      11.20079469
C        4.94582188      44.51567803      10.69643741
C        6.24516652      45.21904831      11.20089186
C        6.27222881      46.70487321      10.69918144
C        7.57827704      47.40601698      11.20052181
C        7.60670404      48.88784459      10.69741865
C        8.91762296      49.59039495      11.19665753
C        8.95162991      51.06664288      10.68971154
C       10.26572434      51.77379210      11.18835319
C       10.30433565      53.24906179      10.67894624
C       11.61814258      53.95783841      11.17695434
C       11.65591615      55.43486770      10.67204538
C       12.97304567      56.13582935      11.16816055
C        2.04115847      34.16642133      11.18642732
C        2.14079334      35.65749276      10.69188837
C        3.43008364      36.38411594      11.23864753
C        3.49741557      37.86194894      10.71477083
C        4.79722191      38.58122756      11.22533994
C        4.84305196      40.05762386      10.70617355
C        6.14461118      40.76648005      11.21165090
C        6.18134167      42.24900673      10.70007105
C        7.48043007      42.95618774      11.20534141
C        7.51390410      44.44029112      10.69775577
C        8.81378060      45.14641684      11.20407119
C        8.84816925      46.62885435      10.69678905
C       10.15077502      47.33594695      11.20323967
C       10.18790011      48.81552006      10.69368640
C       11.49466297      49.52508195      11.19688057
C       11.53449838      51.00186005      10.68362857
C       12.84632781      51.71322955      11.18006028
C       12.88609879      53.18820324      10.66498061
C       14.20713105      53.89587347      11.14869506
C       14.24048911      55.36988266      10.63752661
C       15.57207397      56.06145457      11.10818836
C       15.59238960      57.54333121      10.62847906
C       16.92900396      58.20845442      11.10797326
C        1.74486101      29.70412640      11.12195300
C        1.93153288      31.18923719      10.64260549
C        3.17224120      31.89986716      11.29570615
C        3.32271941      33.39249790      10.77258712
C        4.58511551      34.12361126      11.34472624
C        4.70598053      35.60351115      10.79122579
C        6.00533583      36.33746816      11.29447453
C        6.06628624      37.80052362      10.73895746
C        7.37280055      38.50477364      11.23073859
C        7.41211466      39.98522808      10.71245230
C        8.71214215      40.69201672      11.21249976
C        8.74697254      42.17673102      10.70340467
C       10.04518482      42.88407153      11.20879305
C       10.08092572      44.36876506      10.70347085
C       11.37925417      45.07677451      11.21298836
C       11.41878714      46.55983571      10.70501809
C       12.71944263      47.27061728      11.21378833
C       12.76227500      48.75002752      10.69889317
C       14.06798874      49.46255820      11.20006647
C       14.11184763      50.93823955      10.67695182
C       15.42573597      51.64964426      11.16443029
C       15.46943073      53.12040227      10.62733597
C       16.80397229      53.82244800      11.07183861
C       16.82850588      55.28894931      10.54223819
C       18.17706449      55.94434952      10.96592980
C       18.18207891      57.44570107      10.50190123
C       19.52504109      58.08024036      10.94273333
C       19.53187046      59.60171978      10.54120708
C       20.87868280      60.21155531      11.01078827
C        1.11609120      25.18715777      11.02314111
C        1.60055133      26.69461093      10.58022322
C        2.75400313      27.34963323      11.41829429
C        3.04996217      28.87106542      10.84974708
C        4.21509583      29.55508767      11.58052864
C        4.46000946      31.08918389      10.98444100
C        5.63849699      31.79435481      11.65541562
C        5.86170980      33.31340553      10.98914599
C        7.06329504      34.04671608      11.58161899
C        7.26515945      35.52123972      10.84846631
C        8.57733021      36.20879937      11.24543186
C        8.63180358      37.70979243      10.72542158
C        9.93179873      38.41276034      11.21496305
C        9.97477716      39.90789957      10.70594010
C       11.27251180      40.61709635      11.20611053
C       11.30920365      42.10563150      10.70472555
C       12.60495780      42.81101465      11.21717592
C       12.64513981      44.29924905      10.71546518
C       13.93950667      45.00822758      11.23191269
C       13.98573649      46.49241152      10.72197608
C       15.28470490      47.20311658      11.23340469
C       15.33310501      48.68140435      10.70930487
C       16.63708585      49.38496199      11.21109871
C       16.68751510      50.85926654      10.67672301
C       17.99507366      51.55654391      11.16838755
C       18.04914822      53.01092750      10.53517636
C       19.39787963      53.60586332      10.92128286
C       19.41257457      55.12979107      10.34308522
C       20.73456654      55.71583161      10.76327215
C       20.75339126      57.28905631      10.27589701
C       22.06875113      57.84929817      10.75100954
C       22.11876644      59.44642697      10.34054207
C       23.44579945      59.96340487      10.88426262
C       23.53120677      61.53065926      10.57278058
C       24.87634042      61.93579601      11.43809070
C       25.33462214      63.16362599      10.74963762
C       26.60924959      63.87130288      11.28613496
C        0.65394635      20.73892084      11.06098263
C        0.70028359      22.20890240      10.52393977
C        2.09532831      22.85007856      10.91930167
C        2.18145992      24.31623339      10.45436128
C        3.62721968      24.85396132      11.19312256
C        3.99216101      26.39453861      11.48782315
C        5.20683826      26.98972460      10.78812165
C        5.42649601      28.51452745      11.55012780
C        6.61740297      29.21827212      10.95223033
C        6.83045613      30.73993004      11.64296087
C        7.99535642      31.44153173      10.96943913
C        8.25739617      33.02750272      11.56410005
C        9.39521222      33.66143428      10.75167737
C        9.76318867      35.39896135      10.63471396
C       11.05168460      36.05873086      11.15808579
C       11.17669376      37.61528647      10.69971603
C       12.47801506      38.34071521      11.20341490
C       12.53008750      39.83574202      10.69319525
C       13.82692450      40.53384446      11.20558918
C       13.86860029      42.03170148      10.71554001
C       15.15548188      42.73454337      11.24151734
C       15.20463436      44.22755242      10.74311609
C       16.49253168      44.93299127      11.27145269
C       16.55006644      46.41485536      10.75212165
C       17.85111494      47.10874940      11.25664417
C       17.90021614      48.57822188      10.73487235
C       19.19136721      49.21682787      11.27768616
C       19.24390436      50.69325806      10.75216487
C       20.59727064      51.18009192      11.25313024
C       20.66521608      52.53750020      10.55260506
C       21.93364008      53.22787767      10.99966810
C       21.95945232      54.64270787      10.34155680
C       23.22945798      55.32556996      10.89403852
C       23.28771395      56.79112856      10.31711036
C       24.54411055      57.44659424      10.94434375
C       24.66286725      58.97891126      10.47641107
C       25.98758774      59.45113142      11.32166290
C       26.15280601      60.99045534      11.78226491
C       27.67825577      61.69306221      11.67412778
C       27.89482829      63.03893705      10.94125180
C       29.24815881      63.75632177      11.36855869
C       29.32011500      65.16026073      10.74316414
C       30.63592425      65.85823971      11.22529964
C        0.43870042      16.29832774      11.12622482
C        0.48518756      17.77686641      10.60547412
C        1.82060033      18.49626771      11.06200388
C        1.87836759      19.96120919      10.50821666
C        3.27649446      20.66682286      10.89761252
C        3.30695358      22.08801307      10.27679666
C        4.90976261      22.61632093      10.27597653
C        5.03200101      24.02241769      11.00215835
C        6.37401074      24.72525012      10.51731454
C        6.48044333      26.17120364      11.14640792
C        7.78059369      26.90218963      10.68848268
C        7.88388968      28.37950859      11.29556886
C        9.14883053      29.11192607      10.77025750
C        9.26187366      30.62161347      11.31940486
C       10.50949583      31.34123894      10.74349104
C       10.64861009      32.90304099      11.20258394
C       11.88986159      33.56317509      10.58541383
C       12.27647694      35.30661122      10.61392007
C       13.46446567      35.99522463      11.33872312
C       13.72118462      37.53952269      10.70768318
C       15.02837465      38.22143851      11.15934990
C       15.08209701      39.74887832      10.69242315
C       16.36470060      40.43920141      11.22300690
C       16.41822107      41.95203378      10.75048741
C       17.69186895      42.64484787      11.30443687
C       17.76081022      44.14090106      10.80792467
C       19.03736426      44.82691474      11.36584873
C       19.11533177      46.28950626      10.77584453
C       20.43681121      46.84778800      11.26383268
C       20.47754068      48.35969132      10.80424056
C       21.82866827      48.79835377      11.35442841
C       21.88841801      50.19621760      10.78971024
C       23.18272410      50.87965369      11.21706675
C       23.20515375      52.30805261      10.60794940
C       24.49034032      53.00212571      11.10588066
C       24.52983249      54.45364166      10.53932979
C       25.80794943      55.13892816      11.10642227
C       25.87363768      56.60592017      10.59351527
C       27.19643428      57.24733434      11.18315147
C       27.26674849      58.74671946      10.75862091
C       28.61063666      59.38682523      11.34179767
C       28.71913906      60.86587390      10.97017445
C       30.23147897      61.52236430      11.45465141
C       30.49298416      62.92905770      10.89745572
C       31.85278657      63.60404488      11.30707478
C       31.90403265      65.05095299      10.74608725
C       33.21941934      65.75442452      11.22465204
C       33.25863548      67.22136026      10.69599866
C       34.56410197      67.92690384      11.19516096
C        0.29925091      11.84556775      11.15590849
C        0.33902766      13.32729316      10.64300885
C        1.64557199      14.04276792      11.13667685
C        1.68886414      15.52161702      10.61422290
C        3.00302616      16.24135279      11.09637990
C        3.05764163      17.71253681      10.55559662
C        4.40108147      18.43651706      11.01916916
C        4.48248248      19.84132991      10.36890425
C        6.16435480      20.36725887      10.41098387
C        6.14352368      21.81281449      10.89475158
C        7.58421434      22.47553724      10.49526089
C        7.63992179      23.93157629      11.03396436
C        8.98192822      24.64662642      10.59317830
C        9.03844004      26.11069064      11.15193275
C       10.33913816      26.84432911      10.66336950
C       10.40917272      28.32181472      11.20990954
C       11.68921603      29.05184846      10.68829685
C       11.76260411      30.55219603      11.20212039
C       13.03247329      31.26617312      10.66426567
C       13.11003626      32.79296709      11.14258088
C       14.38905354      33.50061351      10.65842966
C       14.65567689      35.02427087      11.31824613
C       15.82494413      35.70813363      10.57193805
C       16.22243478      37.45092980      10.54458091
C       17.51584406      38.09677294      11.11208966
C       17.61342286      39.65232150      10.71301979
C       18.88539434      40.32775553      11.29509755
C       18.95733108      41.84760092      10.84563580
C       20.20653557      42.49337273      11.46806644
C       20.30248784      43.97917735      10.97491980
C       21.65240980      44.45929138      11.52449619
C       21.75363216      45.81588457      10.87865500
C       23.06475331      46.44037831      11.34824527
C       23.07118412      47.86439856      10.79659901
C       24.39799386      48.54520367      11.26084627
C       24.43733552      50.00909978      10.72960838
C       25.74017487      50.70049405      11.20865683
C       25.77045761      52.16763406      10.66683308
C       27.06613379      52.86225264      11.18168141
C       27.10826507      54.33281432      10.66521261
C       28.41808608      55.01200641      11.19916438
C       28.47546630      56.48518228      10.70750382
C       29.79637988      57.16653876      11.25382927
C       29.86648078      58.64973668      10.80205807
C       31.24435412      59.30643662      11.31350217
C       31.36493733      60.75200586      10.83137269
C       32.90571286      61.38187199      11.23584556
C       33.08824147      62.80301266      10.73935889
C       34.42406819      63.49327930      11.23271973
C       34.47965032      64.96321215      10.72057214
C       35.79214685      65.66692486      11.21003757
C       35.83033240      67.14456321      10.69473598
C       37.13540171      67.85259399      11.19257104
C       37.17276386      69.33338395      10.68263235
C       38.47710701      70.04327196      11.18587205
C        0.18382005       7.38344661      11.17512647
C        0.22146968       8.86986492      10.66278144
C        1.52105189       9.58488645      11.16571389
C        1.56063987      11.06845284      10.65383605
C        2.86178077      11.78415219      11.15501122
C        2.90426616      13.26418069      10.63621746
C        4.20778037      13.98162020      11.13441397
C        4.25749622      15.45566607      10.60281876
C        5.57233642      16.16329738      11.11299256
C        5.64815940      17.63310612      10.59581991
C        7.10044573      18.19316372      11.23517142
C        7.33569657      19.71232750      11.19930603
C        8.80153377      20.23352503      10.56137206
C        8.86069459      21.71545415      11.03667512
C       10.20243282      22.41261192      10.56778457
C       10.24161926      23.87753030      11.09711859
C       11.55829287      24.59751528      10.61803053
C       11.60296117      26.06971727      11.14308742
C       12.90246476      26.79380259      10.64527931
C       12.95172412      28.27494417      11.16337023
C       14.24153266      28.99463533      10.65267605
C       14.28974906      30.48656390      11.15536447
C       15.58076769      31.19848376      10.64470965
C       15.63639243      32.69738057      11.14258803
C       16.93679641      33.42497923      10.64273908
C       17.06542684      34.98259644      11.08113359
C       18.33966068      35.65700769      10.49735117
C       18.73524450      37.37262096      10.53559384
C       19.99246854      37.99022920      11.19518807
C       20.14041726      39.54133125      10.81231866
C       21.41870426      40.14418670      11.42431860
C       21.50454401      41.67058977      11.05833165
C       22.78307178      42.16033940      11.78240418
C       22.97993905      43.46390840      11.05359181
C       24.31508025      44.11525345      11.40739131
C       24.32271497      45.56428226      10.84776160
C       25.64406849      46.24846269      11.28543046
C       25.66502129      47.72036842      10.76894074
C       26.97324068      48.41569954      11.24401978
C       27.00575521      49.89199130      10.72447452
C       28.30833383      50.59053605      11.21839000
C       28.34475631      52.06748808      10.70574495
C       29.65199392      52.76139988      11.21474649
C       29.69639547      54.23724031      10.71608780
C       31.01254110      54.92786586      11.23474464
C       31.06455567      56.40718543      10.75314164
C       32.40280398      57.09398355      11.25633549
C       32.48057468      58.58345847      10.78521909
C       33.89581311      59.19999316      11.36301312
C       34.20050079      60.58743719      10.80436806
C       35.57869352      61.28269572      11.28982744
C       35.67829910      62.71378584      10.73118945
C       37.00613534      63.40991989      11.21123223
C       37.05253903      64.88461915      10.69837067
C       38.36067156      65.59120237      11.19143715
C       38.39820248      67.07498236      10.68490014
C       39.70191355      67.78555894      11.18562187
C       39.74196925      69.27095340      10.68080330
C       41.04667245      69.98354619      11.18705666
C       41.09481903      71.47005647      10.68789729
C       42.39776340      72.18371099      11.19854187
C        0.07290233       2.94018150      11.16099657
C        0.10969013       4.40503348      10.69662415
C        1.40267713       5.11458506      11.19168562
C        1.44355822       6.59936743      10.67800713
C        2.74248925       7.32127440      11.17738672
C        2.78253871       8.80743510      10.66606770
C        4.08216643       9.52342250      11.17207753
C        4.12434935      11.00744995      10.65989571
C        5.42375884      11.72329592      11.16884958
C        5.47312893      13.20542273      10.64953875
C        6.78404013      13.92044721      11.16084562
C        6.85602341      15.39274687      10.63073065
C        8.25905438      16.06914976      11.09660217
C        8.30326982      17.50070514      10.53588829
C       10.00078847      18.03840880      10.52790273
C       10.04692831      19.48393379      11.07509088
C       11.41793540      20.17655091      10.61586186
C       11.45713167      21.65388727      11.10308912
C       12.78446665      22.35852277      10.62077714
C       12.82138100      23.83367805      11.12452210
C       14.13012282      24.54693924      10.62951482
C       14.16749501      26.02399091      11.13940817
C       15.46735121      26.74038868      10.64039013
C       15.50328491      28.22131513      11.15147427
C       16.80111586      28.93726593      10.65693805
C       16.83279206      30.42471947      11.16609208
C       18.13474720      31.14199349      10.68923098
C       18.16980429      32.65033477      11.18973013
C       19.47954974      33.36453856      10.72289089
C       19.53714668      34.93162370      11.14378006
C       20.89893434      35.58862806      10.68036485
C       21.20480619      37.22424703      10.66808279
C       22.44492234      37.65371474      11.34559778
C       22.66324497      39.37693525      10.89547642
C       23.95762864      39.60786208      11.58142468
C       24.15291640      41.18374426      11.90040049
C       25.56895923      41.81029187      11.41557235
C       25.53601367      43.26068221      10.82701427
C       26.87593457      43.95542692      11.23158439
C       26.89291097      45.43805341      10.74027092
C       28.20244277      46.12774464      11.21841175
C       28.23093616      47.61743886      10.72650922
C       29.53549294      48.31605017      11.21736723
C       29.57287041      49.80167079      10.71767112
C       30.87984208      50.50178355      11.21552481
C       30.92096583      51.98220928      10.71571951
C       32.23486690      52.67946647      11.21541864
C       32.27786142      54.15753591      10.72360664
C       33.60257657      54.84590075      11.21964239
C       33.65632074      56.32352487      10.74472920
C       35.01986874      56.97665157      11.25871640
C       35.08441934      58.44336690      10.82817870
C       36.56587759      59.08729580      11.31723382
C       36.83844464      60.49493552      10.79388531
C       38.20837717      61.15940568      11.20914323
C       38.26194081      62.62676246      10.69291378
C       39.57932833      63.32631404      11.17527603
C       39.61983403      64.81325146      10.67619098
C       40.92340580      65.52206481      11.17736559
C       40.96287539      67.01148157      10.67685569
C       42.26443718      67.72431168      11.18299351
C       42.30951889      69.21544726      10.68342739
C       43.60866427      69.93355021      11.19263823
C       43.65336762      71.41813144      10.69947999
C       44.94366733      72.12517229      11.16391173
C       44.98012544      73.58915107      10.71403352
C       -0.00055355       0.00083439      10.71946200
C        1.29868396       0.70899868      11.21406569
C        1.33029178       2.17350675      10.71113834
C        2.61621500       2.87353257      11.16037826
C        2.65645182       4.34414190      10.69471992
C        3.95592993       5.06023545      11.18877563
C        4.00178565       6.54420106      10.67862690
C        5.30422409       7.26263619      11.18283529
C        5.34542115       8.74761707      10.67532026
C        6.64415272       9.45919569      11.18868132
C        6.68811343      10.94573515      10.68137682
C        7.98411868      11.65519360      11.20421233
C        8.04596321      13.14082779      10.68876559
C        9.36481991      13.84937444      11.21649467
C        9.48081157      15.27739174      10.59471361
C       11.16090967      15.83024564      10.72925855
C       11.18464419      17.29918758      11.16923646
C       12.61336854      17.95778552      10.72600852
C       12.66423047      19.43932979      11.17609104
C       14.00900712      20.12480806      10.67655833
C       14.04754063      21.60609102      11.14731264
C       15.36293170      22.30463908      10.64073418
C       15.39788860      23.78298859      11.13505054
C       16.70117186      24.49141190      10.63162999
C       16.73312549      25.96793885      11.14074973
C       18.03322316      26.68032898      10.64682798
C       18.05991969      28.15658198      11.16475282
C       19.36160064      28.87013592      10.68791387
C       19.37940286      30.34630848      11.21645359
C       20.68733080      31.05821733      10.76667636
C       20.69612171      32.52947191      11.30736081
C       22.02645177      33.23570612      10.93474659
C       22.00392887      34.66999231      11.57107870
C       23.42638154      35.31948822      11.91743438
C       23.56853215      36.52489420      11.00311360
C       24.96360341      37.18861406      11.35647824
C       24.98914991      38.65272189      10.74508277
C       26.39779474      39.36506649      11.01438703
C       26.63933894      40.89551250      10.57640810
C       28.03259470      41.56637251      11.01544194
C       28.09097456      43.12763817      10.64097595
C       29.40112994      43.80836595      11.13398957
C       29.44424042      45.33096785      10.68030656
C       30.74539197      46.03083399      11.18151852
C       30.78977253      47.53141290      10.70140591
C       32.09394005      48.23606554      11.20284412
C       32.14035552      49.72357260      10.70716557
C       33.45249479      50.42793717      11.20108856
C       33.49747656      51.90800882      10.70032947
C       34.82120155      52.60871648      11.18335276
C       34.86286027      54.08410663      10.68737433
C       36.20920434      54.76761190      11.15657404
C       36.25498674      56.23977797      10.68181816
C       37.64934642      56.89296228      11.14042645
C       37.71717644      58.33554196      10.66715617
C       39.27871901      58.94162922      11.04571052
C       39.44410714      60.37876965      10.60152953
C       40.77892661      61.05163461      11.11077851
C       40.83329144      62.54742711      10.64489530
C       42.13795405      63.25257930      11.15440673
C       42.18193294      64.74733721      10.66477776
C       43.48156501      65.46020655      11.17524806
C       43.52375252      66.95204333      10.67626008
C       44.82167920      67.66811913      11.18627689
C       44.86595202      69.16548685      10.69073457
C        3.86946183       2.10753018      10.70611664
C        5.16982350       2.81562314      11.19838544
C        5.21375608       4.28968029      10.68828368
C        6.52537647       5.00789273      11.18634585
C        6.56796471       6.49001892      10.68126388
C        7.87142334       7.19797457      11.19191123
C        7.91121309       8.68268783      10.69312349
C        9.20735740       9.38219761      11.21860545
C        9.25060512      10.87151452      10.72752287
C       10.53919273      11.55346770      11.29374509
C       10.61960973      13.05265621      10.84035190
C       11.98212169      13.62306269      11.58784452
C       12.26705365      15.16871389      11.56324420
C       13.77960135      15.73466757      10.98676125
C       13.85224368      17.24410824      11.32489133
C       15.22439393      17.89961501      10.78828188
C       15.27560055      19.38828603      11.21681910
C       16.59765636      20.06469700      10.67812736
C       16.63667602      21.54771984      11.15006290
C       17.93974660      22.24473410      10.62865906
C       17.97345277      23.72100600      11.12940203
C       19.27259589      24.42708238      10.62237322
C       19.30102668      25.89810409      11.14411389
C       20.60197944      26.60788825      10.65830032
C       20.62211895      28.07521225      11.19496738
C       21.92823447      28.78664988      10.73258185
C       21.94032630      30.24367126      11.29830915
C       23.26498785      30.94478690      10.88327967
C       23.28256163      32.37988523      11.47131737
C       24.65359269      33.06064904      11.14279890
C       24.74136959      34.32183348      11.97676154
C       26.18775746      34.95040478      11.71549019
C       26.13413046      36.27834755      10.88568242
C       27.48885642      37.04344973      11.16271762
C       27.50708551      38.46919432      10.46321106
C       28.92849050      39.22802386      10.83610812
C       29.22391413      40.79802929      10.37963750
C       30.53095241      41.48427531      10.92985211
C       30.62977396      43.04044421      10.55952591
C       31.91512126      43.73521034      11.10440584
C       31.99175925      45.25607975      10.65610703
C       33.28630685      45.96419645      11.17909950
C       33.34749830      47.46069289      10.69343952
C       34.65238634      48.16741728      11.19589450
C       34.70914474      49.65375570      10.68991031
C       36.02606336      50.36543222      11.16911700
C       36.07743269      51.84074243      10.65719221
C       37.41702016      52.54600393      11.11432715
C       37.45753955      54.01172383      10.60379224
C       38.82996847      54.69780949      11.03076784
C       38.87443626      56.17656676      10.55356341
C       40.33973976      56.75457363      11.04848585
C       40.57611131      58.15931893      10.53341230
C       41.94308671      58.80627972      11.03059332
C       42.03233439      60.28768473      10.57427628
C       43.33755183      60.98421148      11.11024907
C       43.39654133      62.48264132      10.63827448
C       44.69312508      63.19477452      11.16458182
C       44.74193182      64.68748414      10.67057991
C        7.79292758       4.24005920      10.68075744
C        9.10341465       4.94735877      11.18451684
C        9.14151504       6.42862502      10.68675101
C       10.44891027       7.12635671      11.20023716
C       10.48392523       8.61333126      10.71959576
C       11.78860391       9.29379449      11.25759267
C       11.82894341      10.79183132      10.80992999
C       13.15663782      11.43314979      11.38371519
C       13.22510393      12.94509582      11.01908542
C       14.63496821      13.52449577      11.70538859
C       14.95873015      15.08512110      11.68403387
C       16.39424970      15.66022737      11.00952455
C       16.48439379      17.17929547      11.33549392
C       17.82378321      17.82494974      10.73503211
C       17.87896105      19.31395337      11.18324349
C       19.18103548      19.99466721      10.62586879
C       19.21987475      21.47305519      11.11730064
C       20.51258950      22.16796619      10.58471662
C       20.54820869      23.63954680      11.10550760
C       21.84741073      24.34199519      10.60384092
C       21.87348949      25.80087461      11.14514507
C       23.17542008      26.49856498      10.66369601
C       23.19039745      27.95688104      11.22480334
C       24.51933953      28.64598388      10.79242472
C       24.53373284      30.06100989      11.35960093
C       25.85672107      30.73537483      10.89538806
C       25.91167522      32.02472842      11.69248310
C       27.38516482      32.58754795      11.65625048
C       27.33892620      33.98547927      11.03135947
C       28.69566344      34.70728865      11.31572457
C       28.68147360      36.15581881      10.67600330
C       30.01286640      36.90883134      11.03255966
C       30.06317336      38.35902239      10.34939549
C       31.44462688      39.13105697      10.80402025
C       31.75142754      40.72166340      10.36494946
C       32.99958178      41.41183867      10.99864305
C       33.15383950      42.96825524      10.59372971
C       34.41217718      43.66705364      11.17975374
C       34.53171116      45.18389722      10.68329729
C       35.83032739      45.88387783      11.18988350
C       35.90264693      47.38923586      10.69473933
C       37.20057185      48.10577333      11.18530758
C       37.27545570      49.58888233      10.65722076
C       38.59321619      50.31084994      11.11805416
C       38.66110647      51.77347474      10.57200185
C       40.02696838      52.47841315      10.97120959
C       40.06168271      53.92711569      10.44506711
C       41.48496939      54.54334326      10.83899528
C       41.51150882      56.00527554      10.39430487
C       43.03390997      56.57375875      10.83049370
C       43.21309665      58.03763844      10.45323368
C       44.51453952      58.71792627      11.05048609
C       44.60191572      60.22090159      10.60510495
C       11.72183802       6.36260692      10.67878148
C       13.04137766       7.04752252      11.18309886
C       13.06833205       8.53864495      10.72649502
C       14.39356640       9.19866567      11.25212811
C       14.42828163      10.70149239      10.84041666
C       15.77714798      11.33297218      11.39431592
C       15.84436678      12.85199969      11.06517165
C       17.28213390      13.42832489      11.68278014
C       17.59133901      14.99497972      11.63430010
C       19.03458722      15.55965460      10.88404172
C       19.10316620      17.07659149      11.21505252
C       20.41299220      17.70346864      10.58338968
C       20.46716379      19.20107277      11.08321875
C       21.76343942      19.87145347      10.54344625
C       21.78667541      21.36290593      11.06364320
C       23.10091240      22.04626865      10.57617052
C       23.13225339      23.50853393      11.06515756
C       24.40166825      24.18481368      10.49500214
C       24.45382018      25.59482335      11.10541213
C       25.72181550      26.31345268      10.63357794
C       25.72347244      27.63119112      11.42676252
C       27.17011766      28.17673604      11.46741052
C       27.17256248      29.57450794      10.81309162
C       28.50291844      30.20858852      11.33827509
C       28.54669595      31.67205502      10.90771393
C       29.88679202      32.36235868      11.30791960
C       29.89169344      33.84562254      10.76329579
C       31.20799749      34.58047675      11.17005515
C       31.22214528      36.05213994      10.56634373
C       32.53205976      36.80024361      11.00181230
C       32.60586758      38.27498104      10.36908740
C       33.94142502      39.02843710      10.92216415
C       34.22637028      40.65704395      10.53800404
C       35.44587060      41.28363804      11.21629806
C       35.64638473      42.88867121      10.73783842
C       36.89626812      43.54315120      11.27734895
C       37.07698599      45.07883782      10.70526277
C       38.32582070      45.79619315      11.22428910
C       38.44113334      47.31410381      10.70851446
C       39.71344769      48.03279883      11.22986318
C       39.83020890      49.51941335      10.63362067
C       41.13828614      50.25265716      11.07351247
C       41.25890389      51.68031591      10.40202040
C       42.69266312      52.32205539      10.69508885
C       42.72951727      53.79917886      10.19525048
C       44.17992347      54.34989465      10.74771084
C       44.36611173      55.79116719      10.31839003
C       17.02533196      10.61212568      10.78945986
C       18.38906732      11.22312037      11.30496501
C       18.46805532      12.75451084      10.98994967
C       19.93066546      13.27705614      11.57214743
C       20.15520212      14.82626932      11.61276083
C       21.67591462      15.28909335      11.30982699
C       21.68971480      16.91150111      11.08405361
C       22.97911556      17.48751868      10.36341271
C       23.06005696      18.96188876      10.95938374
C       24.30037607      19.69437590      10.46475285
C       24.28411809      21.04620664      11.22934508
C       25.71915887      21.59568066      11.25214200
C       25.71677669      22.97190305      10.52734018
C       26.97389680      23.65849375      11.07688476
C       27.04918762      25.10422844      10.54730171
C       28.32588749      25.73285858      11.17507160
C       28.38537636      27.21596172      10.77169067
C       29.71704547      27.87843430      11.25926695
C       29.74551409      29.37052698      10.78716851
C       31.07087711      30.06816197      11.25741257
C       31.10396658      31.55407918      10.74693636
C       32.41483084      32.27313597      11.20392978
C       32.43621955      33.75658835      10.66082472
C       33.73408249      34.48122701      11.12641581
C       33.76574347      35.95768115      10.55996929
C       35.05316245      36.67354978      11.07075953
C       35.12551558      38.15609009      10.52513059
C       36.41898203      38.84274227      11.13830095
C       36.53773692      40.35313163      10.70798109
C       37.84877876      41.05409668      11.21134319
C       37.94417221      42.59270210      10.71958529
C       39.28204188      43.32658097      11.15261650
C       39.51964904      44.98937276      10.74080428
C       40.76455639      45.61647309      11.34401325
C       40.93306478      47.21738435      10.82648514
C       42.19614760      47.87826788      11.31881974
C       42.34973004      49.45365027      10.67067993
C       43.68336282      50.04784554      11.12284921
C       44.06526573      51.41507778      10.33473630
C       21.08412525      12.59277602      10.76156296
C       22.61672210      12.94777433      11.17494866
C       22.87215849      14.27420359      10.56863925
C       24.19196565      14.91718191      11.04493359
C       24.24485116      16.34514198      10.38710780
C       25.49303372      17.03390732      10.99193467
C       25.60287712      18.48383388      10.44144791
C       26.86160822      19.12447399      11.07532624
C       26.93008181      20.60110815      10.62883837
C       28.24026714      21.27559859      11.13538935
C       28.26319701      22.76759184      10.63257000
C       29.56885152      23.44724219      11.16029343
C       29.61138027      24.92684936      10.67232657
C       30.92565520      25.61238499      11.19361789
C       30.97017225      27.09710735      10.71170040
C       32.28346033      27.79734647      11.21353967
C       32.31760395      29.28369751      10.71944740
C       33.62752876      29.99455824      11.20395582
C       33.65944228      31.47900882      10.68686598
C       34.96078907      32.19322662      11.17146457
C       34.98980313      33.67531989      10.64170864
C       36.28558981      34.38655844      11.14184607
C       36.32172695      35.86749849      10.61561599
C       37.62064988      36.57008962      11.13791458
C       37.67037299      38.05639173      10.63968910
C       38.97642545      38.75734849      11.15675073
C       39.04076139      40.25210776      10.66475987
C       40.34221352      40.95618568      11.16534496
C       40.41665204      42.45796780      10.66130284
C       41.72558714      43.14160588      11.22257228
C       41.82608981      44.65903754      10.79648523
C       43.15117310      45.34053246      11.26019975
C       43.22693734      46.85991614      10.78536358
C       44.58581323      47.53848028      11.16676817
C       44.64922084      49.01367028      10.63422855
C       25.45181700      14.02527361      10.65757125
C       26.75060310      14.72292514      11.17476179
C       26.80487119      16.16846850      10.60692232
C       28.10675537      16.85580895      11.13983198
C       28.16062615      18.31446003      10.61632445
C       29.46340337      19.00730029      11.14282466
C       29.51179324      20.48204307      10.63374824
C       30.81232039      21.17956137      11.15767196
C       30.84865167      22.66020494      10.66044197
C       32.15585270      23.35849263      11.17748262
C       32.19565006      24.83891636      10.68207284
C       33.50517281      25.54199794      11.19140146
C       33.54395224      27.02452243      10.69376705
C       34.85197050      27.73120493      11.19376225
C       34.88559561      29.21392124      10.68836429
C       36.19029879      29.92222448      11.18364315
C       36.22143745      31.40495636      10.66941439
C       37.52137009      32.11311671      11.16794084
C       37.55309395      33.59574963      10.65180667
C       38.85198512      34.30271749      11.15709667
C       38.88804786      35.78509086      10.64588051
C       40.18974893      36.49073111      11.15650587
C       40.23143469      37.97483130      10.65289697
C       41.53734286      38.68052738      11.16179543
C       41.58554874      40.16758397      10.66163108
C       42.89791421      40.87017158      11.16226420
C       42.94835135      42.36049760      10.67093908
C       44.27580863      43.06162115      11.14376484
C       44.32991981      44.54791441      10.64469165
C       29.39775276      16.05411202      10.67714167
C       30.70269327      16.75566084      11.18357504
C       30.74372010      18.22271445      10.66104207
C       32.04665040      18.92675743      11.17334833
C       32.08704322      20.40305471      10.66340875
C       33.39017572      21.10703247      11.17622026
C       33.42868152      22.58611964      10.67389545
C       34.73533714      23.29128232      11.18331963
C       34.77416660      24.77087719      10.68210361
C       36.08175090      25.47730714      11.18818796
C       36.11857174      26.95620139      10.68406366
C       37.42512450      27.66090440      11.18667365
C       37.45676176      29.14123536      10.67830234
C       38.75875871      29.84624186      11.17941200
C       38.78861977      31.32896078      10.66750151
C       40.08657663      32.03610847      11.17040027
C       40.11979744      33.51974118      10.65887105
C       41.41926543      34.22788212      11.16365151
C       41.45519699      35.71143969      10.65543274
C       42.75795961      36.41991850      11.16008082
C       42.79733909      37.90308087      10.65354259
C       44.10507739      38.61277484      11.15144217
C       44.14763657      40.09489165      10.64181775
C       33.31902536      18.14786805      10.67906357
C       34.62274096      18.85493662      11.18429460
C       34.66125859      20.33379739      10.67621917
C       35.96638160      21.04143372      11.18306072
C       36.00648542      22.52089553      10.67894679
C       37.31418549      23.22935302      11.18696674
C       37.35613577      24.70703340      10.68491772
C       38.66508239      25.40977521      11.19216628
C       38.70277755      26.88315492      10.68857058
C       40.00226149      27.58341541      11.19516256
C       40.03182494      29.05867187      10.68347270
C       41.32533171      29.76501089      11.18403941
C       41.35353932      31.24929399      10.67189092
C       42.64917491      31.96104252      11.17316545
C       42.68433436      33.44696161      10.66200834
C       43.98379028      34.15869654      11.16489858
C       44.02099746      35.64262412      10.65540186
C       37.23521328      20.27054602      10.67964618
C       38.54174791      20.98131254      11.18767463
C       38.58889830      22.46335613      10.68752812
C       39.89562795      23.17076105      11.19794815
C       39.93475804      24.64091681      10.69815931
C       41.22881321      25.34215663      11.16087712
C       41.26491693      26.80971754      10.70321789
C       42.55427436      27.51168892      11.15818174
C       42.58781751      28.98279786      10.69202890
C       43.87784327      29.68885665      11.19020819
C       43.91155349      31.17380072      10.67624289
C       41.15609633      22.40417083      10.70252667
C       42.44303573      23.10532389      11.16448302
C       42.47754741      24.57708023      10.71196284
C       43.76149258      25.28301584      11.21282320
C       43.80377037      26.74744688      10.71002314
C        0.37849448      20.71497977       8.50252103
C        0.39927037      22.19589639       8.98529991
C        0.40340797      17.76123587       9.04713118
C       25.59485930      13.76250151       9.13977400
C       26.88578933      14.47458481       8.62258344
C       29.44071324      15.97519259       9.12020352
C        1.24646769      49.77373196       8.58479519
C        1.13786421      45.36784251       8.60245587
C        1.17347145      46.84826112       9.09440053
C        2.46291142      47.55008087       8.63943665
C        2.49931690      49.01431474       9.08759524
C        3.79137808      49.71964106       8.63662211
C        3.83002519      51.19182476       9.08648034
C        5.11596702      51.89181637       8.63724039
C        1.03289505      40.89681702       8.61397530
C        1.06444556      42.38439122       9.11931610
C        2.36329557      43.09517872       8.61820642
C        2.39290353      44.59187090       9.11414571
C        3.68826401      45.29480462       8.61357899
C        3.71662772      46.77970297       9.10558949
C        5.00986328      47.47986528       8.60741017
C        5.04160074      48.95538459       9.10099452
C        6.33937714      49.65613793       8.60593303
C        6.37289719      51.12733134       9.10289873
C        7.67969135      51.82998510       8.60884300
C        7.71531655      53.30464193       9.10933494
C        9.03048136      54.01634319       8.61127275
C        0.95790022      36.44987212       8.59368869
C        0.96655530      37.92622597       9.11075249
C        2.27278848      38.63146733       8.62615388
C        2.29506765      40.11811054       9.12820405
C        3.59544586      40.82545234       8.62967758
C        3.62476377      42.31540628       9.13011690
C        4.92321901      43.02163844       8.62721813
C        4.95014836      44.51279446       9.12572746
C        6.25120757      45.21457966       8.62445291
C        6.27528968      46.70211769       9.12137547
C        7.58325528      47.40089681       8.62249218
C        7.60856023      48.88450056       9.11961152
C        8.91993983      49.58353921       8.62023191
C        8.95088883      51.06296902       9.11899172
C       10.26125650      51.76683796       8.61478331
C       10.29836034      53.24758139       9.11635471
C       11.60048062      53.95799562       8.60570734
C       11.64377636      55.44229921       9.11086756
C       12.93944692      56.16156936       8.59738138
C        0.98337648      32.00502608       8.48189394
C        0.90893805      33.47724045       9.03432270
C        2.24062180      34.18384177       8.62756332
C        2.21538545      35.66258606       9.13679375
C        3.52847946      36.35924486       8.67120264
C        3.53327147      37.85132316       9.15590980
C        4.83398438      38.55351208       8.65577235
C        4.85785301      40.04729106       9.14581174
C        6.15666438      40.75440549       8.64052173
C        6.18727840      42.24419165       9.13874734
C        7.48738809      42.95115377       8.63396685
C        7.51823951      44.43751995       9.13561001
C        8.82136105      45.14252103       8.63271976
C        8.85205820      46.62565748       9.13483721
C       10.15800855      47.32898059       8.63190473
C       10.18982909      48.81045522       9.13155092
C       11.49661531      49.51329225       8.62554107
C       11.53077783      50.99535821       9.12229833
C       12.83337490      51.69983579       8.60893725
C       12.86901327      53.18547920       9.10449508
C       14.16006993      53.89433510       8.57901310
C       14.20728685      55.38381537       9.07802278
C       15.48697994      56.11017772       8.54002585
C       15.54743239      57.59486639       9.07112349
C       16.82111492      58.34958901       8.54549038
C        1.04147229      27.52374582       8.44114029
C        0.91237336      29.00092292       8.91193610
C        2.29031704      29.72337357       8.63490088
C        2.19221955      31.20681595       9.12161519
C        3.54734403      31.91623281       8.76505882
C        3.48427538      33.39687386       9.23127474
C        4.82361827      34.09091682       8.79580615
C        4.78566324      35.58438474       9.23764915
C        6.08572255      36.27703276       8.72685889
C        6.09736540      37.77997621       9.18200242
C        7.39251821      38.48949311       8.65970381
C        7.42120877      39.98002910       9.15173788
C        8.72043043      40.69022409       8.64111250
C        8.75285583      42.17602438       9.14218562
C       10.05503767      42.88557008       8.63753752
C       10.08783198      44.36826213       9.14221647
C       11.39341850      45.07570746       8.64171014
C       11.42546847      46.55691726       9.14378257
C       12.73283417      47.26118151       8.64260738
C       12.76587105      48.74315801       9.13772288
C       14.07242004      49.44588853       8.62876899
C       14.10570538      50.92983105       9.11624175
C       15.40504191      51.63316981       8.59340622
C       15.43434600      53.12222390       9.07009567
C       16.70655585      53.83426341       8.50387343
C       16.76700078      55.33089069       8.98768852
C       18.02631163      56.09783137       8.41390330
C       18.10210557      57.56297839       8.95720182
C       19.36464599      58.35304092       8.40330254
C       19.43678496      59.79261687       9.00815859
C       20.69019222      60.60628687       8.49265343
C        1.59945872      22.94222088       8.37329995
C        1.63064692      24.40392662       8.90214212
C        2.52720927      25.36566059       8.21619384
C        2.28496797      26.75045230       9.05253575
C        3.64787160      27.54682456       8.78323147
C        3.49762137      28.96475892       9.33440743
C        4.90649178      29.74661477       8.96151035
C        4.79259224      31.17128864       9.44822298
C        6.19086637      31.91242334       8.99359820
C        6.10223846      33.35238552       9.42853104
C        7.45999610      34.06505929       8.87545427
C        7.37010636      35.53304416       9.27248782
C        8.64891098      36.24663045       8.65931744
C        8.66777730      37.72445675       9.15792928
C        9.96542755      38.44084854       8.64086763
C        9.98947739      39.91963282       9.14472138
C       11.29102963      40.63333083       8.63582290
C       11.32204511      42.11355096       9.14407574
C       12.62794841      42.82661586       8.64617614
C       12.65943476      44.30480199       9.15460976
C       13.96954492      45.01372620       8.66094175
C       13.99889558      46.49347201       9.16140113
C       15.30901103      47.19878486       8.66320460
C       15.34398088      48.68282214       9.14807981
C       16.65608331      49.39565827       8.63677293
C       16.68631982      50.87867616       9.10885295
C       17.99729483      51.60170162       8.58112385
C       18.00929885      53.08801025       8.95726661
C       19.22795407      53.92268491       8.20977397
C       19.33328181      55.33461622       8.77853306
C       20.58519404      56.20417780       8.09222987
C       20.67688648      57.58493425       8.73244680
C       21.94136263      58.47959903       8.11483829
C       22.01920429      59.84135366       8.80766875
C       23.25199880      60.78607567       8.22547097
C       23.30342968      62.12624866       9.03605544
C       24.43350041      63.22069695       8.62266972
C        0.37515578      16.27596372       8.55610126
C        1.67662973      18.45483274       8.49318170
C        1.69398285      19.95039149       8.95198277
C        2.91442784      20.64899517       8.32955210
C        2.92800140      22.18574937       8.73928689
C        4.03332872      22.99367230       8.01521434
C        3.95671758      24.67425049       7.89721803
C        5.25158055      25.52340838       8.38204615
C        5.06432940      26.91892658       9.22121039
C        6.38403875      27.72489307       8.78217653
C        6.38542040      29.14249364       9.41798096
C        7.67125099      29.86769867       8.86776633
C        7.69327239      31.30667454       9.43266898
C        8.95043945      31.98029303       8.79897536
C        8.98245314      33.42032783       9.25961437
C       10.17066770      34.10439458       8.58132033
C        9.98187160      35.52649524       9.08963729
C       11.28223717      36.24707285       8.58627517
C       11.25572152      37.68349401       9.13285849
C       12.55349592      38.39432799       8.63227338
C       12.56609878      39.86661068       9.13598724
C       13.86854554      40.58741918       8.63535411
C       13.89580374      42.05783476       9.15580055
C       15.20875761      42.77577156       8.67139378
C       15.23505375      44.24733446       9.18339569
C       16.55287757      44.96034341       8.70123867
C       16.57397280      46.44039535       9.19479981
C       17.88199884      47.16054443       8.68462598
C       17.93166575      48.65691790       9.16688789
C       19.26133648      49.46808530       8.70101635
C       19.25957549      50.92395902       9.20290490
C       20.63588170      52.03488578       9.06835993
C       20.68073373      53.32297236       8.23437428
C       21.97709187      54.28607137       8.81085721
C       22.07162742      55.62894827       8.11358458
C       23.33385984      56.52238710       8.78809388
C       23.42495813      57.88887103       8.16331832
C       24.68262504      58.79446313       8.91357668
C       24.67498613      60.13370671       8.18485756
C       25.88916303      61.15964386       8.48779138
C       25.68615607      62.71521090       9.22897911
C       26.94257958      63.47462648       8.75268476
C        0.29245835      11.83309263       8.58463026
C        0.32660441      13.31830182       9.08215343
C        1.62464856      14.02052510       8.56570591
C        1.65573792      15.50680744       9.05450250
C        2.94729746      16.20551870       8.52616588
C        2.97051027      17.70064362       8.98969389
C        4.23959823      18.40037264       8.43176982
C        4.21436327      19.92305434       8.82269874
C        5.35035242      20.79616796       8.27312233
C        5.23499268      22.45140611       8.74402670
C        6.50676660      23.21915832       8.39022718
C        6.45180489      24.70843655       8.97060422
C        7.76262248      25.45664473       8.56603408
C        7.72695491      26.92643526       9.15664251
C        9.00984305      27.65725361       8.66362887
C        9.03183924      29.10597239       9.23809252
C       10.31305112      29.80833539       8.69321258
C       10.34132764      31.26499027       9.20388869
C       11.61126461      31.94248049       8.61786465
C       11.62749542      33.40155007       9.05977995
C       12.85562248      34.09599694       8.52026941
C       12.62621392      35.49200130       9.07803306
C       13.96878481      36.21724392       8.64500184
C       13.85517192      37.64164595       9.13631548
C       15.13984187      38.36985967       8.57504603
C       15.14757168      39.82079823       9.12667922
C       16.45698101      40.55507630       8.65385344
C       16.47574004      42.01223163       9.19214447
C       17.80481830      42.74326955       8.73561469
C       17.81809543      44.20762231       9.24202194
C       19.15537658      44.94291620       8.77844939
C       19.15757356      46.42638095       9.20179863
C       20.41626873      47.34207006       8.56244710
C       20.48762692      48.72814101       9.26173022
C       21.86066548      49.86192227       9.26971576
C       21.88245371      51.25744641       8.62838202
C       23.21111790      52.09985725       9.07160994
C       23.28422487      53.52772357       8.47272712
C       24.57958331      54.32429870       9.00933655
C       24.65857874      55.77351215       8.46212450
C       25.92787931      56.54792129       9.06258630
C       25.99384805      58.02863363       8.58256587
C       27.23133104      58.78840661       9.21422870
C       27.25923048      60.29055666       8.71356476
C       28.44291189      61.06078319       9.43420563
C       28.17055681      62.74391535       9.41051054
C       29.42655511      63.41832296       8.80568366
C       29.41181092      64.98984595       9.19069599
C       30.69576291      65.71012825       8.65778631
C        0.18541790       7.37648629       8.59709685
C        0.22204354       8.86486345       9.10082960
C        1.52297603       9.57502988       8.59437896
C        1.55946413      11.06125733       9.09260053
C        2.86243615      11.76778338       8.58383027
C        2.89623246      13.25370469       9.07564251
C        4.19822444      13.95885537       8.56421388
C        4.22306960      15.44945199       9.04549691
C        5.51207200      16.16547501       8.54097437
C        5.51027567      17.67192790       9.02177401
C        6.69647465      18.47872304       8.53378584
C        6.54463057      20.14479191       8.91896351
C        7.78081488      20.90694638       8.44937323
C        7.72787531      22.43900683       8.94985689
C        9.01974173      23.17735574       8.51218800
C        9.01701899      24.66610130       9.05734753
C       10.30709656      25.39153037       8.57920669
C       10.31199896      26.86695934       9.11731187
C       11.60607295      27.57982713       8.61609989
C       11.63195145      29.04713958       9.14151137
C       12.92936989      29.74998247       8.61851888
C       12.95006871      31.21949611       9.11432108
C       14.24286260      31.93017248       8.60773486
C       14.24346378      33.41416935       9.09235558
C       15.52382735      34.07360543       8.57332923
C       15.49425589      35.51419932       9.05681404
C       16.69668709      36.21932933       8.45360505
C       16.46880927      37.63057266       9.00113307
C       17.76044487      38.37351176       8.53741853
C       17.73461460      39.79373004       9.15292662
C       19.05502228      40.54609759       8.73663594
C       19.06650423      41.99658405       9.28940190
C       20.41804552      42.78777651       8.90000602
C       20.37939248      44.24871856       9.42871428
C       21.73404891      45.37575083       9.38663464
C       21.81983499      46.71501083       8.59831247
C       23.05324931      47.66317469       9.23624643
C       23.09973287      49.11601118       8.72252760
C       24.42563786      49.89148195       9.18175660
C       24.48299927      51.33835998       8.62152741
C       25.78867026      52.09567627       9.12106010
C       25.85763718      53.55922237       8.58079932
C       27.14335967      54.30237852       9.11949104
C       27.20836819      55.78599963       8.61437490
C       28.48685812      56.51003878       9.17174959
C       28.51849683      58.02097132       8.71439961
C       29.78516077      58.74574939       9.25417210
C       29.72509582      60.32844242       8.83823459
C       31.01354536      60.97251281       9.33286546
C       30.70389882      62.72352394       9.35617040
C       31.92520520      63.43291413       8.72229206
C       31.95005077      64.96358486       9.18129383
C       33.23910652      65.68163176       8.65479360
C       33.27515644      67.18279340       9.13657619
C       34.57370389      67.89488778       8.62426991
C        0.07396734       2.93632997       8.62938027
C        0.11056528       4.40213308       9.08892220
C        1.40482911       5.10974095       8.59279325
C        1.44535910       6.59599329       9.10020000
C        2.74698936       7.31560713       8.60096110
C        2.78574531       8.80306574       9.10393222
C        4.09100819       9.51538311       8.60073803
C        4.12816667      11.00070088       9.09872542
C        5.43535340      11.71052563       8.59755210
C        5.46603454      13.19705824       9.08831369
C        6.76474462      13.91029837       8.58651984
C        6.77285916      15.40905182       9.06274619
C        8.01005543      16.14677402       8.51993236
C        7.98835292      17.69223650       8.99337795
C        9.09018348      18.58886347       8.44319009
C        8.98026667      20.13935897       9.00101948
C       10.27226009      20.88412246       8.53677220
C       10.26729290      22.39597135       9.02867772
C       11.56139472      23.11723675       8.55359866
C       11.57368057      24.60682296       9.07110921
C       12.86854911      25.32323178       8.58025118
C       12.89042233      26.80255408       9.09621250
C       14.19015338      27.51535661       8.59477427
C       14.21941592      28.98904408       9.10417885
C       15.52127804      29.70132714       8.60172386
C       15.54639159      31.17376974       9.10287902
C       16.85271548      31.87487808       8.61231074
C       16.86123620      33.34649653       9.08910386
C       18.15547015      34.02492472       8.56775512
C       18.13267964      35.49184232       8.97113315
C       19.37334963      36.19389873       8.47879854
C       19.07762312      37.61238863       9.01225469
C       20.38514065      38.38529927       8.63085009
C       20.31473666      39.78707676       9.27367880
C       21.61048716      40.61065872       8.87831687
C       21.62816358      42.04190544       9.52082188
C       22.94190071      43.10124522       9.52164198
C       22.93678879      44.57357767       8.90286692
C       24.27541274      45.42379935       9.30235760
C       24.32995872      46.90843833       8.76094335
C       25.64378941      47.65686293       9.22983389
C       25.68765287      49.12247143       8.69452933
C       26.99994533      49.85474041       9.17684130
C       27.05364006      51.32396684       8.65030578
C       28.35433658      52.04950915       9.15688422
C       28.41005460      53.53013294       8.64755549
C       29.70277514      54.24616049       9.16895931
C       29.74956254      55.74015759       8.68031773
C       31.03489530      56.44862950       9.21290173
C       31.05036759      57.95567215       8.73397513
C       32.33768427      58.68848812       9.22144780
C       32.14005295      60.22505625       8.56827324
C       33.38049828      61.13200670       8.54547629
C       33.20252283      62.68887329       9.16877991
C       34.48018880      63.42310255       8.66222892
C       34.50393381      64.92175033       9.16387002
C       35.79569703      65.63536816       8.63994628
C       35.83549575      67.12744624       9.13420948
C       37.13409818      67.83974584       8.62139796
C       37.17466867      69.32699101       9.12139904
C       38.47742423      70.03897639       8.61455747
C        0.00037240      -0.00086663       9.07788360
C        1.30037659       0.70588924       8.58327989
C        1.33124109       2.17139629       9.08272728
C        2.61797905       2.87021862       8.63318651
C        2.65801235       4.34207815       9.09470054
C        3.95926851       5.05774017       8.60157727
C        4.00527338       6.54282920       9.10790708
C        5.31248973       7.26261363       8.60926541
C        5.35290129       8.74721242       9.11399002
C        6.66243254       9.46280373       8.61755829
C        6.69850943      10.94632939       9.12066675
C        8.00918786      11.66363077       8.63318826
C        8.03031089      13.15236760       9.12089553
C        9.32568855      13.87202153       8.62923097
C        9.27855112      15.38945971       9.04545364
C       10.42205356      16.26181838       8.54448825
C       10.29661049      17.88025412       9.00790824
C       11.57316987      18.59629134       8.58055172
C       11.52306626      20.12252971       9.06801008
C       12.81094133      20.84141370       8.58896161
C       12.81890545      22.34318162       9.07314391
C       14.11264431      23.05796520       8.57922841
C       14.13653437      24.54819688       9.07994728
C       15.43397476      25.26581880       8.58209358
C       15.46462898      26.74688827       9.09045280
C       16.76844533      27.46654222       8.59652979
C       16.80038652      28.94217965       9.10770803
C       18.11293813      29.66187845       8.62850133
C       18.13895062      31.13270622       9.14039756
C       19.46060217      31.84752584       8.67956414
C       19.46738130      33.31602061       9.16399762
C       20.79324688      34.01658682       8.72410580
C       20.77979968      35.46773378       9.12693833
C       22.00275766      36.26524125       8.67476903
C       21.65849549      37.63778771       9.16338969
C       23.04172857      38.51963204       8.77447743
C       22.88858889      39.88713634       9.34325725
C       24.12498776      40.80946514       8.60449596
C       24.18916228      42.44064785       8.79546016
C       25.50790619      43.18622015       9.28030395
C       25.52850386      44.68021636       8.76365412
C       26.85750700      45.41915385       9.20444016
C       26.89536987      46.89458490       8.70049986
C       28.21476634      47.60956793       9.17958790
C       28.25888988      49.08499737       8.67309632
C       29.56833385      49.79696872       9.16810358
C       29.61490127      51.27638825       8.66256785
C       30.91731912      51.98640133       9.16598839
C       30.96091602      53.47311693       8.66821633
C       32.25911545      54.18092689       9.17524513
C       32.29013464      55.67973913       8.69211073
C       33.58531909      56.38956792       9.19377740
C       33.58277784      57.92106126       8.73246075
C       34.83981550      58.62007824       9.30261615
C       34.53502324      60.38296340       9.27027810
C       35.79404667      61.06605765       8.72073350
C       35.74568365      62.63247466       9.16504826
C       37.02522373      63.36009780       8.63732481
C       37.05893443      64.86215627       9.13717626
C       38.35496654      65.58096152       8.62013560
C       38.39720880      67.06920506       9.12372276
C       39.69871880      67.78382036       8.61429855
C       39.74171695      69.26957435       9.11867139
C       41.04656104      69.98327833       8.61065142
C       41.09518093      71.46964306       9.11009003
C       42.39861425      72.18310338       8.59966999
C        3.87040354       2.10580021       9.09122891
C        5.17095804       2.81353893       8.59896010
C        5.21519325       4.28957994       9.10661757
C        6.52767303       5.01095435       8.61105424
C        6.57245152       6.49423368       9.11867236
C        7.88087857       7.21289325       8.62066424
C        7.92277523       8.69555841       9.13263795
C        9.23419514       9.42088674       8.64892349
C        9.26811994      10.90196918       9.17028257
C       10.58214926      11.64169638       8.72577990
C       10.57650298      13.12796578       9.26244215
C       11.80827876      13.93775183       8.87633564
C       11.59895284      15.58205232       9.24501343
C       12.86729258      16.27258457       8.79795037
C       12.78498359      17.83976369       9.18966906
C       14.06552616      18.54236790       8.69173778
C       14.05955451      20.07045197       9.13078535
C       15.34624919      20.78156976       8.61593700
C       15.37283088      22.28683375       9.09187345
C       16.66520777      23.00804504       8.58287189
C       16.69963067      24.49675010       9.08189887
C       17.99843423      25.22174175       8.58219972
C       18.03589807      26.70090588       9.09728887
C       19.34293215      27.43227513       8.61426557
C       19.37985929      28.90419130       9.14042611
C       20.69932838      29.64641072       8.68329115
C       20.72583743      31.11059969       9.22561644
C       22.05929750      31.87506103       8.82640869
C       22.05773755      33.34292406       9.39559786
C       23.37497621      34.19871456       9.10252939
C       23.35833034      35.84381919       9.46288193
C       24.60867454      36.55142613       8.87962293
C       24.57073578      38.10822760       9.21739531
C       25.74697319      38.72139218       8.37932422
C       25.61693687      40.27970255       8.30979535
C       26.77615535      40.97676765       9.00949684
C       26.78006167      42.49071321       8.65121056
C       28.09972815      43.18584764       9.10913578
C       28.11777467      44.67189017       8.64568570
C       29.43996616      45.36604481       9.13424893
C       29.47543959      46.84794013       8.65453100
C       30.78895947      47.54627720       9.15233909
C       30.82911961      49.02658079       8.65821023
C       32.13637453      49.72938696       9.15722824
C       32.17472290      51.21174746       8.65686863
C       33.47874307      51.91693187       9.15079037
C       33.50998338      53.40630273       8.65350444
C       34.81227910      54.11361985       9.13931799
C       34.82471262      55.61955950       8.65247324
C       36.11738217      56.33426262       9.13392228
C       36.05231891      57.89849487       8.69220615
C       37.34415323      58.57333139       9.16404032
C       37.04911397      60.34451513       9.25031655
C       38.27008762      61.07551562       8.62254664
C       38.29095482      62.59265343       9.12529167
C       39.58011700      63.32432176       8.60400032
C       39.61990077      64.81077995       9.11554536
C       40.92121930      65.52893286       8.60621673
C       40.96243152      67.01327581       9.11551457
C       42.26550995      67.72798315       8.60943020
C       42.31035992      69.21639402       9.11270043
C       43.61108035      69.93424751       8.60545185
C       43.65456274      71.41793508       9.09945881
C       44.94593834      72.12409732       8.63674098
C       44.98122956      73.58814429       9.08565525
C        7.79114466       4.24333444       9.11658805
C        9.09652912       4.96000762       8.61282864
C        9.14186343       6.44285459       9.12557318
C       10.44553065       7.16854677       8.62945800
C       10.49024674       8.64877907       9.16009193
C       11.79387467       9.39170851       8.68943016
C       11.82710527      10.86625294       9.25538032
C       13.10956817      11.64307250       8.83168869
C       13.09612365      13.12287313       9.45453327
C       14.30591402      13.91503064       9.03434632
C       14.06954678      15.52626318       9.45606166
C       15.33243329      16.22220329       8.90357992
C       15.30601658      17.78762176       9.25828864
C       16.57534220      18.48905810       8.69119615
C       16.60416770      20.01870165       9.13240579
C       17.88558458      20.75007278       8.59845400
C       17.92879197      22.24421820       9.08153057
C       19.22324436      22.97469472       8.56287372
C       19.26312670      24.45552326       9.07401171
C       20.56033216      25.19442404       8.57797593
C       20.60464931      26.66638915       9.11024399
C       21.90951410      27.42609282       8.64104426
C       21.95230556      28.88481709       9.19382605
C       23.27349689      29.66502738       8.76685043
C       23.29483156      31.11782941       9.35255115
C       24.58495937      31.97867297       8.95862296
C       24.63554108      33.42785259       9.60236776
C       25.88536998      34.34703360       9.04990738
C       25.93254220      35.91696116       9.39234444
C       27.17660661      36.59579716       8.67566551
C       27.18539828      38.14408730       8.94787142
C       28.39233241      38.75132108       8.21708985
C       28.17599331      40.33355158       8.24749068
C       29.41348159      40.95172530       8.84538813
C       29.39652323      42.47068061       8.50204959
C       30.69827949      43.13546735       9.02736094
C       30.71884620      44.62285277       8.58770889
C       32.02679840      45.30161722       9.10932155
C       32.05963274      46.78365260       8.63424817
C       33.36419953      47.47623254       9.14494232
C       33.39963367      48.95568760       8.64614410
C       34.70541385      49.65703550       9.14068030
C       34.73306309      51.13801154       8.63286552
C       36.03892014      51.84389391       9.10970445
C       36.05554084      53.33403947       8.60265093
C       37.36202768      54.04479499       9.06503645
C       37.35027649      55.55523652       8.57281494
C       38.65039622      56.29728669       9.00519355
C       38.45175305      57.85942666       8.37085574
C       39.69519767      58.77825589       8.33020772
C       39.54796112      60.32041749       9.02592757
C       40.82719576      61.07921340       8.53835126
C       40.85122338      62.55577062       9.08591781
C       42.15219857      63.27862879       8.58407851
C       42.18736529      64.75675603       9.10385113
C       43.49089138      65.47169075       8.60385591
C       43.52754392      66.95613199       9.11355449
C       44.82861203      67.67091041       8.61094448
C       44.86895756      69.16612404       9.10904755
C       11.70645851       6.39085943       9.11856396
C       12.99795775       7.12728589       8.61424656
C       13.04945403       8.60437656       9.16913945
C       14.33359919       9.36588693       8.68964523
C       14.37319767      10.83231847       9.29571726
C       15.63510271      11.61576163       8.85488513
C       15.63740259      13.07686091       9.52172145
C       16.82192594      13.87745253       9.04660889
C       16.59490279      15.47559326       9.48050807
C       17.82739318      16.17497517       8.85327466
C       17.84304994      17.74791197       9.20410313
C       19.09978253      18.51068728       8.61446691
C       19.15397605      19.99859243       9.09011456
C       20.44323199      20.73810476       8.54378908
C       20.49388302      22.21537311       9.04447670
C       21.79711876      22.96649014       8.54128284
C       21.83048576      24.43747535       9.05288911
C       23.11917582      25.22811785       8.53890190
C       23.17076196      26.66542021       9.11580013
C       24.47622563      27.48190856       8.65719182
C       24.53956676      28.89967285       9.24405485
C       25.82040259      29.81655116       8.74913239
C       25.82716690      31.20739429       9.40331337
C       27.13099811      32.17739562       8.96712452
C       27.19688723      33.72105027       9.47922817
C       28.46149864      34.42887086       8.78526386
C       28.52520386      35.94642366       9.15501301
C       29.79550795      36.60268547       8.50191233
C       29.81368484      38.12427149       8.81317748
C       31.04562941      38.73124056       8.14220283
C       30.80709318      40.30466951       8.15465758
C       32.02866471      40.90216481       8.82817930
C       32.02755009      42.41091616       8.47821356
C       33.30916205      43.06810161       9.05412737
C       33.32669937      44.54883167       8.59549800
C       34.61564369      45.22776729       9.13335271
C       34.64336609      46.70687661       8.64225390
C       35.94206302      47.40469127       9.15290870
C       35.97184370      48.87621744       8.63152626
C       37.28097388      49.58031076       9.10838733
C       37.28834458      51.05754737       8.58116472
C       38.59621100      51.76956926       9.03094193
C       38.59226832      53.26404826       8.49930913
C       39.90015343      53.99598263       8.91433860
C       39.84661642      55.54126882       8.43801733
C       41.13112669      56.28631871       8.90223018
C       40.87044114      58.02156901       8.98452661
C       42.12511801      58.79467385       8.45934313
C       42.09578066      60.29318325       9.01044970
C       43.40112331      61.02759611       8.54020561
C       43.41904187      62.50048146       9.07817078
C       44.72711196      63.21474935       8.59366234
C       44.75440059      64.69508096       9.10925386
C       15.60109751       8.56433669       9.12286943
C       16.86865311       9.34137865       8.62299093
C       16.91662177      10.79560605       9.25641138
C       18.15986934      11.59569249       8.78683017
C       18.19042123      13.05250250       9.45707636
C       19.34494584      13.88638239       8.91335579
C       19.17877070      15.44293869       9.32120733
C       20.29445031      16.29917186       8.47595548
C       20.39720664      17.75584258       9.03899746
C       21.66428932      18.53704184       8.45582068
C       21.72694551      19.99186767       8.99556028
C       23.02641264      20.79260165       8.48411616
C       23.09026735      22.22328724       9.01239923
C       24.37628433      23.07720477       8.43460518
C       24.38603365      24.48616644       8.96943959
C       25.73100313      25.38082843       8.48038445
C       25.72459332      26.75581272       9.13046209
C       27.08125302      27.73827463       8.75190772
C       27.12848304      29.25254194       9.26420593
C       28.41385514      30.04940991       8.76702490
C       28.45770133      31.53326038       9.34438452
C       29.73549063      32.25700034       8.74713210
C       29.79420189      33.73855191       9.21869023
C       31.08509401      34.42241398       8.61119115
C       31.13077413      35.91883279       9.02503135
C       32.43005375      36.58219022       8.45289221
C       32.44256624      38.09413260       8.80847245
C       33.71068175      38.70522545       8.21599943
C       33.50288048      40.26133984       8.23351837
C       34.65291747      40.87282127       9.04594103
C       34.69635303      42.33715729       8.59503446
C       35.92454313      43.02128551       9.21220454
C       35.94002185      44.46413234       8.65503749
C       37.22861515      45.15418741       9.13918868
C       37.23110326      46.63777470       8.65503030
C       38.54806257      47.33496084       9.15487924
C       38.56678148      48.79099383       8.60788818
C       39.87756188      49.50329642       9.07472740
C       39.83661357      50.97832418       8.49025747
C       41.15187449      51.71224076       8.86287167
C       41.11495776      53.23174019       8.32630089
C       42.43092077      54.01366532       8.65481934
C       42.24381839      55.63258344       8.10513513
C       43.51634276      56.56458084       8.14136773
C       43.37797125      58.03703975       8.88990428
C       44.68515411      58.78780573       8.48969859
C       44.66703004      60.24879895       9.05068182
C       19.45367771      10.77650303       9.14803334
C       20.66755028      11.61981398       8.65613887
C       20.70756270      13.10737274       9.22483782
C       21.77798311      14.01716416       8.35952768
C       21.67693288      15.60235255       8.01535346
C       23.09506248      16.50210908       8.12349057
C       22.96536325      17.82530849       8.82744389
C       24.33764570      18.73908772       8.34296691
C       24.30592666      20.10918768       8.96624563
C       25.67128422      21.06130074       8.56177273
C       25.70691778      22.57996223       8.99325022
C       27.03894165      23.36003402       8.50779083
C       27.06116214      24.84564678       9.00373295
C       28.36284465      25.63549384       8.58847501
C       28.37800917      27.09706533       9.19608870
C       29.66768192      27.85286588       8.68683970
C       29.70645617      29.32022644       9.22334192
C       30.99993263      30.03832165       8.68736912
C       31.04519158      31.51453629       9.19251322
C       32.34434703      32.21191737       8.63647120
C       32.39145176      33.69670704       9.10573010
C       33.70155906      34.38508889       8.55897092
C       33.73855327      35.88037754       9.00639265
C       35.06028338      36.57323150       8.50314389
C       35.05863422      38.07435830       8.94915211
C       36.34835408      38.80316077       8.55218653
C       36.31192205      40.23869922       9.16290442
C       37.56545122      40.96270350       8.63953257
C       37.59862800      42.39960974       9.18369828
C       38.82182423      43.02354613       8.45889522
C       38.65298500      44.55103712       8.47937221
C       39.86202900      45.16182907       9.22568027
C       39.92604807      46.59748331       8.71648472
C       41.18413232      47.30156176       9.30026712
C       41.22494053      48.70102214       8.65383822
C       42.51593169      49.48808134       9.11725341
C       42.34423141      50.91476404       8.22653955
C       43.66184685      51.75684840       7.88018386
C       43.53777154      53.40278699       7.82085669
C       44.85080603      54.27633161       8.08212802
C       44.66529372      55.76692072       8.76625874
C       23.05793908      13.73555921       9.04798075
C       24.34417506      14.42191093       8.51148338
C       24.34295335      15.95342781       8.85636654
C       25.68006413      16.70060857       8.42905963
C       25.66100534      18.19512948       8.90016259
C       26.96602170      18.97075991       8.49054351
C       26.96390721      20.44317187       9.05825940
C       28.26874148      21.19037235       8.56489854
C       28.29490830      22.66686161       9.06642881
C       29.60033290      23.40416634       8.58638601
C       29.62427724      24.88396687       9.10470445
C       30.92690028      25.61064116       8.62234219
C       30.95343112      27.08657627       9.15272291
C       32.25385045      27.79952343       8.64321146
C       32.29040715      29.27448446       9.15934370
C       33.59230411      29.97685717       8.63303634
C       33.63339841      31.45622791       9.12759108
C       34.93935413      32.15413979       8.60093368
C       34.97926381      33.63943847       9.08284761
C       36.28891113      34.34063898       8.57227848
C       36.32211322      35.83024314       9.05866095
C       37.62278002      36.54523516       8.56687980
C       37.63852987      38.03413936       9.07219680
C       38.93458116      38.74435223       8.58265531
C       38.94057944      40.22276092       9.09790233
C       40.25621428      40.92189535       8.59420344
C       40.25815284      42.40087345       9.08993515
C       41.54042909      43.12855646       8.63826841
C       41.54147976      44.54963429       9.25303739
C       42.78597995      45.28532456       8.68552862
C       42.83971849      46.70252098       9.26202443
C       44.04086354      47.42314765       8.60243019
C       44.05563724      48.85711871       9.12953546
C       45.08948625      49.66550401       8.45202046
C       44.75136741      51.22191349       8.79450463
C       26.89821925      15.99895308       9.05445417
C       28.19866481      16.72515550       8.57231865
C       28.20902250      18.22838652       9.05153104
C       29.51385160      18.95125257       8.57296623
C       29.53343327      20.43914226       9.07704612
C       30.83689608      21.15945010       8.58758067
C       30.86404550      22.64264044       9.09924756
C       32.16755024      23.35772502       8.60618106
C       32.19768951      24.83751872       9.12142722
C       33.50059155      25.54756238       8.62025259
C       33.53309304      27.02507281       9.13284042
C       34.83726294      27.72960605       8.62237010
C       34.87244711      29.20757306       9.12703824
C       36.17747793      29.90838223       8.61191017
C       36.21368908      31.38992550       9.10841250
C       37.51834279      32.09222857       8.59673177
C       37.55373760      33.57771012       9.09144486
C       38.85558315      34.28604030       8.58596749
C       38.88747771      35.77463106       9.08516609
C       40.18675539      36.48279713       8.58511860
C       40.21360093      37.96885439       9.09167826
C       41.51365646      38.67378762       8.59150781
C       41.54007605      40.15409611       9.10442308
C       42.83032676      40.86429770       8.59202912
C       42.85240848      42.34454844       9.10519515
C       44.12839952      43.04701893       8.57461138
C       44.14537262      44.52289128       9.08459848
C       30.73825715      16.69032913       8.61377013
C       30.76714246      18.18790443       9.10161960
C       32.06832688      18.90131427       8.60245728
C       32.09861609      20.38942681       9.10288225
C       33.40167378      21.10115299       8.60504718
C       33.43407294      22.58381812       9.11271807
C       34.73853143      23.29302166       8.61199632
C       34.77290063      24.77222392       9.12076249
C       36.07808507      25.47839913       8.61462465
C       36.11307982      26.95523659       9.12135808
C       37.41901693      27.65659703       8.61134124
C       37.45201564      29.13559451       9.11409025
C       38.75517409      29.83671841       8.60410652
C       38.78737350      31.32018414       9.10493574
C       40.08675228      32.02534787       8.59682370
C       40.12061878      33.51214149       9.09754733
C       41.41971622      34.21930587       8.59227696
C       41.45259686      35.70611503       9.09421369
C       42.75135269      36.41245703       8.58882528
C       42.78371731      37.89659483       9.09289278
C       44.07949492      38.60193487       8.58044238
C       44.11092196      40.08623056       9.08207829
C       33.32770044      18.13193169       9.11828157
C       34.62921520      18.84304326       8.61305051
C       34.66559370      20.32872740       9.11498585
C       35.96981700      21.03883556       8.61174613
C       36.00778055      22.52035884       9.11681488
C       37.31447090      23.22930117       8.61056150
C       37.35488409      24.70684098       9.11419076
C       38.66318523      25.40812456       8.60497990
C       38.70061091      26.88097661       9.10688356
C       40.00024326      27.57879711       8.59574126
C       40.03056855      29.05432612       9.10181318
C       41.32474424      29.75825599       8.59683771
C       41.35361256      31.24409513       9.10118097
C       42.64964866      31.95354326       8.59672651
C       42.68430836      33.44181627       9.09986258
C       43.98294732      34.15021537       8.59354715
C       44.01767097      35.63655090       9.09414748
C       37.23621763      20.26870100       9.11769891
C       38.54236832      20.98017279       8.60967043
C       38.58904904      22.46282777       9.10972086
C       39.89567636      23.16971662       8.59907626
C       39.93427421      24.63980649       9.09813813
C       41.22848324      25.33966579       8.63370638
C       41.26442556      26.80732182       9.08830937
C       42.55425797      27.50764274       8.63099773
C       42.58787028      28.97937523       9.09201728
C       43.87860926      29.68320178       8.59131012
C       43.91220619      31.16973430       9.09843692
C       41.15647710      22.40347132       9.09481836
C       42.44391725      23.10370449       8.63286199
C       42.47779360      24.57560642       9.08358457
C       43.76233180      25.28009467       8.58203162
C       43.80414711      26.74514626       9.08159401
F        0.47859973      31.93585646      12.38094648
F        0.17880382      27.62239165      12.28879334
F       17.05269264       8.97565503      12.54479248
F       20.92590128      10.91832715      12.50608349
F        1.24314356      49.76206749      12.60164666
F        1.13043637      45.37058744      12.58329895
F        1.00545369      40.89373713      12.56447480
F        2.35213973      43.09645384      12.57279089
F        3.68020130      45.30445445      12.58212699
F        5.00132343      47.48946496      12.58819690
F        6.33052655      49.66320079      12.58671886
F        7.67528450      51.83375730      12.57737640
F        9.03874845      54.01517341      12.56583497
F        0.82500553      36.41973616      12.53861930
F        2.20470411      38.64240580      12.57499652
F        3.56819055      40.84002265      12.57958982
F        4.91404552      43.02739111      12.57976318
F        6.24687459      45.21681999      12.58080760
F        7.58506802      47.40317185      12.58047064
F        8.92202484      49.59280544      12.57658117
F       10.27212919      51.77681985      12.56734305
F       11.62429953      53.95839953      12.55573009
F       12.98709755      56.12123034      12.54663029
F        1.93705762      34.17652315      12.55959616
F        3.37191490      36.41835790      12.61498963
F        4.78096875      38.60773262      12.60322855
F        6.14301961      40.77530858      12.59036804
F        7.48015019      42.95855973      12.58428759
F        8.81246223      45.14735103      12.58311104
F       10.14834493      47.33975253      12.58226502
F       11.49345526      49.53249580      12.57582760
F       12.85044759      51.72345417      12.55884001
F       14.22275013      53.90327995      12.52714754
F       15.61235328      56.04092312      12.48544866
F       16.98206655      58.14284939      12.48286888
F        1.53477404      29.74229392      12.47997162
F        2.98149992      31.94972319      12.65742216
F        4.44441264      34.20847661      12.71144886
F        5.96555658      36.43845679      12.66705743
F        7.38492191      38.52466037      12.60943512
F        8.71506901      40.69791241      12.59133430
F       10.04441565      42.88427779      12.58772552
F       11.37256393      45.07970888      12.59191827
F       12.70960115      47.27985665      12.59265562
F       14.06168587      49.47927471      12.57880170
F       15.42148961      51.67878781      12.54289432
F       16.83722237      53.85049385      12.44894474
F       18.24672937      55.92429329      12.34100110
F       19.59436948      58.00806545      12.31575481
F       20.93434349      60.09030778      12.38116513
F        1.04602563      25.20127642      12.39545605
F        2.41391806      27.50464045      12.73580877
F        3.94698182      29.73233029      12.91288384
F        5.40508733      32.02425556      12.98426509
F        6.85606304      34.30409441      12.90702334
F        8.64631593      36.21444287      12.62336913
F        9.94377194      38.42328588      12.59467812
F       11.27556171      40.62128830      12.58462469
F       12.59781094      42.81075844      12.59595118
F       13.92136534      45.01438956      12.61062382
F       15.26404047      47.22271110      12.61191039
F       16.61845849      49.41975180      12.58972341
F       17.96413087      51.65264759      12.54199809
F       19.44126040      53.70070424      12.29626492
F       20.77173870      55.76500237      12.13966612
F       22.06413287      57.85530655      12.12867843
F       23.45840714      59.91807944      12.27534662
F       24.44736926      62.16402429      12.71280822
F       26.55135024      63.91835307      12.66872070
F        0.68864250      20.72539396      12.43969010
F        2.06687412      22.71843132      12.28476850
F        3.24363912      24.52603159      12.46736460
F        4.31900727      26.36442838      12.82094117
F        5.65903564      28.26152331      12.86832543
F        7.04456324      30.47802232      12.96715092
F        8.51565523      32.81996960      12.88615285
F       11.01532100      36.00790631      12.53083794
F       12.47196896      38.40820949      12.57897868
F       13.83423785      40.52822097      12.58435397
F       15.13160544      42.73057344      12.62010198
F       16.44676945      44.95159181      12.64949772
F       17.82476516      47.14360370      12.63506692
F       19.14598366      49.26396471      12.65340511
F       20.61945715      51.24070412      12.62403862
F       21.90269207      53.30737235      12.37408172
F       23.14244568      55.33125651      12.26501022
F       24.35260046      57.32224948      12.29564750
F       25.80706818      58.90150560      12.56520055
F       26.09209711      60.90334395      13.13699393
F       27.99933275      61.87506299      12.99054135
F       29.32356933      63.86931719      12.73772674
F       30.65188389      65.91077072      12.60319714
F        0.45364011      16.30643866      12.50488864
F        1.84486141      18.52826360      12.44076723
F        3.34297590      20.74869622      12.26901116
F        5.28884341      23.82743570      12.34336969
F        6.59466720      26.02150271      12.50719476
F        8.01347016      28.25649329      12.65763107
F        9.39574312      30.53803884      12.68488295
F       10.75484028      32.94483781      12.56858707
F       13.24118280      36.21411540      12.66193513
F       15.10444685      38.16966302      12.53617118
F       16.35272115      40.41418704      12.60248994
F       17.62830524      42.64828594      12.68217136
F       18.94199165      44.89725101      12.73809338
F       20.42803358      46.87263737      12.64455012
F       21.87018031      48.78895945      12.72775071
F       23.19382498      50.93357126      12.59334486
F       24.45592469      53.03869466      12.48182712
F       25.74008513      55.12576137      12.48102408
F       27.19084949      57.11767644      12.55163177
F       28.53891929      59.31851045      12.72132402
F       30.29601558      61.52047627      12.82271125
F       31.94204221      63.65653928      12.68050326
F       33.24273525      65.78655443      12.60300242
F       34.56815372      67.93949878      12.57393679
F        0.30027273      11.85229981      12.53483940
F        1.64711323      14.05564281      12.51541103
F        2.99809909      16.27501233      12.47469688
F        4.40032134      18.55754916      12.39390593
F        6.02367626      21.75382360      12.25747137
F        7.67622942      23.86406540      12.40693972
F        9.08250274      26.04825427      12.52560797
F       10.46966585      28.27307499      12.58387298
F       11.81402020      30.53408824      12.57809420
F       13.10346198      32.81660544      12.51991150
F       14.88872111      34.79322894      12.63737845
F       17.53521230      37.99351736      12.48417545
F       18.83709633      40.29366311      12.67437335
F       20.06687833      42.51430060      12.83699855
F       21.62335964      44.53332107      12.89145884
F       23.08730423      46.46815814      12.72691984
F       24.41385863      48.56797439      12.63863975
F       25.73829938      50.72550122      12.58606566
F       27.04248380      52.86924230      12.55886967
F       28.39920930      54.98137588      12.57541401
F       29.78118971      57.13194464      12.63151205
F       31.24035685      59.28391623      12.69247533
F       32.91139478      61.38726794      12.61686882
F       34.45030224      63.50800575      12.61145055
F       35.80910459      65.67930695      12.58871204
F       37.14134183      67.85825710      12.57148538
F       38.47647097      70.04355464      12.56490436
F        0.18308893       7.39866832      12.55499144
F        1.51982329       9.59352273      12.54472470
F        2.85868701      11.79678031      12.53388602
F        4.19578471      13.99871936      12.51278141
F        5.50560192      16.14163916      12.48847105
F        7.01179283      17.90463152      12.56121933
F        7.39710715      20.04000596      12.51653060
F        8.90432237      21.75892471      12.40890408
F       10.24740438      23.85777795      12.47262941
F       11.61789729      26.04336090      12.51964462
F       12.97253654      28.25603993      12.54013251
F       14.29197443      30.47169551      12.53196941
F       15.64118660      32.61966885      12.51518722
F       17.08839160      35.05758686      12.44825528
F       19.92009351      37.90651565      12.56505258
F       21.39581329      40.07568917      12.80743455
F       22.47081526      42.36511598      13.09776073
F       24.41859148      44.10443079      12.78661727
F       25.68840256      46.26615686      12.66279428
F       26.99167511      48.43000725      12.62101242
F       28.30979506      50.59793155      12.59591274
F       29.64542639      52.75682934      12.59225165
F       31.01084040      54.91047361      12.61190060
F       32.40065668      57.07529078      12.63445382
F       33.84413489      59.17925969      12.73594400
F       35.62245266      61.31601778      12.66592712
F       37.03689014      63.41889702      12.59015252
F       38.37313078      65.59430341      12.57024900
F       39.70496580      67.78518117      12.56458461
F       41.04290129      69.97894777      12.56697471
F       42.39973226      72.18727036      12.58043832
F        1.39908996       5.11422150      12.57353507
F        2.74184224       7.33134211      12.55725818
F        4.07656535       9.53123593      12.55099357
F        5.41033292      11.73445608      12.54758743
F        6.75830803      13.93938053      12.54029637
F        8.30652390      16.07842438      12.47005885
F       10.00480444      19.47354830      12.45188219
F       11.44751597      21.66492854      12.47950550
F       12.82026281      23.83262210      12.50154145
F       14.17068152      26.01457646      12.51662885
F       15.50054148      28.20781789      12.52855424
F       16.81048329      30.40649896      12.54217442
F       18.11170096      32.64934445      12.56576418
F       19.36323791      35.04734465      12.49782339
F       22.26201895      37.65389149      12.69651066
F       23.92549133      39.11710170      12.86013476
F       24.27173128      41.18780250      13.25345480
F       26.14349843      41.94597359      12.65315601
F       27.00339410      44.02981213      12.59823685
F       28.24866587      46.13587900      12.59427783
F       29.55063312      48.31391541      12.59479563
F       30.88509452      50.49954627      12.59321166
F       32.24223010      52.67164877      12.59300950
F       33.61609329      54.82936883      12.59736595
F       35.03908759      56.93891975      12.63611067
F       36.57667105      59.05683498      12.68971148
F       38.30351584      61.16314822      12.58333003
F       39.60806072      63.32773037      12.55384694
F       40.92966667      65.51813170      12.55618535
F       42.26142476      67.71863404      12.56199097
F       43.60699496      69.93751864      12.57397113
F        1.31120008       0.71781723      12.60010377
F        3.94951406       5.06047797      12.57011467
F        5.30104435       7.26862787      12.56178797
F        6.63106009       9.46068008      12.56737213
F        7.95019668      11.66543714      12.58265824
F        9.31041786      13.91984051      12.59339928
F       11.07571133      17.38037267      12.53323772
F       12.63505276      19.50064343      12.55136002
F       14.03887808      21.63739482      12.52390910
F       15.39782736      23.79008223      12.51227952
F       16.72976944      25.96091798      12.51805493
F       18.04137155      28.13973610      12.54167687
F       19.32448418      30.31203189      12.59135117
F       20.55867104      32.44090927      12.67135235
F       21.50811904      34.54738684      12.83934626
F       23.35875574      35.69277874      13.22804986
F       25.11124050      37.19995610      12.72992571
F       26.43652776      39.42588790      12.40577099
F       28.25028021      41.48858515      12.36632085
F       29.46223892      43.76887019      12.50839117
F       30.76512989      46.01114043      12.55867621
F       32.10157173      48.22993591      12.58045839
F       33.46335999      50.42750767      12.57876191
F       34.84255043      52.60619425      12.56086162
F       36.24722025      54.75478179      12.53393585
F       37.69524663      56.87557616      12.51848181
F       39.32305325      58.89544768      12.42449230
F       40.80517860      61.02108410      12.48876490
F       42.14366135      63.24055395      12.53302641
F       43.47917729      65.45558258      12.55406040
F       44.81528515      67.66494393      12.56554443
F        5.16744079       2.81623880      12.57981797
F        6.52387905       5.01101947      12.56561995
F        7.86550004       7.19150808      12.57062596
F        9.18361449       9.35877662      12.59647191
F       10.45751197      11.47501411      12.66599571
F       11.84377748      13.32524681      12.91383773
F       12.29818378      15.50554838      12.88369260
F       13.83962497      17.41177895      12.68911058
F       15.27327572      19.47499323      12.59018144
F       16.64384994      21.58166709      12.52649455
F       17.97607191      23.72656677      12.50648918
F       19.29323603      25.88177875      12.52118945
F       20.58690792      28.04098954      12.57057634
F       21.86499814      30.18719294      12.67139561
F       23.12541187      32.30493676      12.83867424
F       24.76632174      33.97323122      13.29738878
F       26.61351175      35.19580514      12.99213697
F       27.62440951      37.23166139      12.51756326
F       28.95784857      39.25004236      12.21290395
F       30.58740207      41.41762931      12.30096625
F       31.91890849      43.69484415      12.48075081
F       33.28458555      45.95187469      12.55676291
F       34.65684595      48.16942886      12.57337214
F       36.04516591      50.37735224      12.54665934
F       37.45586202      52.55961708      12.49079829
F       38.88957595      54.69031389      12.40620240
F       40.35894782      56.70674384      12.42025585
F       41.98190768      58.76645190      12.40629406
F       43.32542811      60.96244560      12.48824982
F       44.67824859      63.18700276      12.54313997
F        9.10483851       4.94036716      12.56327248
F       10.44831186       7.10016636      12.57855450
F       11.77520978       9.22575381      12.63396435
F       13.13015834      11.27723674      12.75143887
F       14.52328875      13.22235813      13.03569479
F       15.06357067      15.41151694      13.00726109
F       16.51147119      17.36602367      12.69626230
F       17.89925930      19.39781621      12.55631749
F       19.23138727      21.50213952      12.49269415
F       20.55198147      23.64277858      12.48223654
F       21.86347962      25.77060574      12.52244733
F       23.09435006      27.91370211      12.59607015
F       24.46785163      29.94055991      12.72792116
F       25.67214140      31.81925530      13.01393758
F       27.72998942      32.70108942      12.97561407
F       28.89422590      34.83071803      12.67016065
F       30.08407656      37.02668602      12.40192170
F       31.41139198      39.15113522      12.18114655
F       32.96584950      41.35517477      12.37412536
F       34.38063976      43.65666961      12.55676193
F       35.82872567      45.88865278      12.56799618
F       37.20206615      48.12884135      12.56332911
F       38.61292868      50.35579469      12.49536819
F       40.08911587      52.52012910      12.34503270
F       41.55273163      54.52793459      12.21387801
F       43.02390057      56.50556775      12.20762505
F       44.46001703      58.68529314      12.42606911
F       13.06177330       6.99940058      12.56042999
F       14.41223142       9.10017122      12.62626916
F       15.79441019      11.15612094      12.75953345
F       17.22552818      13.12912595      13.01951755
F       17.69059111      15.33744302      12.94876828
F       19.16467113      17.27116938      12.57347491
F       20.49419622      19.29140580      12.45515375
F       21.72824684      21.39816063      12.43574156
F       23.17259445      23.49876716      12.44216107
F       24.45686722      25.47096710      12.47082114
F       25.40234992      27.48632649      12.73954242
F       27.47642626      28.21370246      12.79182080
F       28.55751278      30.21738907      12.71765489
F       30.02015508      32.38126753      12.67772169
F       31.28940394      34.65624329      12.54228307
F       32.54341547      36.87949446      12.37624626
F       33.85935377      39.02846397      12.29856460
F       35.40087242      41.28304395      12.58796548
F       36.90648878      43.59559496      12.65034769
F       38.32984986      45.81237841      12.60362775
F       39.69909031      48.10207873      12.60660827
F       41.15339652      50.36457813      12.44726329
F       42.74016233      52.37493134      12.07647561
F       44.08822586      54.33003550      12.12374312
F       18.41803054      11.03441503      12.66703311
F       19.93065093      12.92886302      12.89719080
F       20.02147953      15.14739911      12.93939479
F       22.15990803      15.18773502      12.58310920
F       21.71185075      17.27046371      12.41621090
F       23.17532467      18.90755128      12.32325861
F       23.97118792      20.95950498      12.54865777
F       26.01690394      21.68339437      12.57609514
F       26.93440110      23.71984893      12.44879122
F       28.27958107      25.66938683      12.55172064
F       29.79337510      27.83396230      12.63441725
F       31.11705643      30.06564685      12.63531157
F       32.46466210      32.30061010      12.58059492
F       33.75414433      34.52620176      12.50327663
F       35.03090033      36.69534302      12.44813727
F       36.36711555      38.77859991      12.51312762
F       37.84629397      41.00542545      12.58775093
F       39.28382399      43.32739176      12.53324305
F       40.77533038      45.64604138      12.71650684
F       42.24788382      48.00339211      12.68342889
F       43.70982826      50.20483789      12.48708922
F       22.62445877      13.00119711      12.53634370
F       24.31688963      14.96655819      12.40986530
F       25.39302272      17.06604203      12.36317739
F       26.76479437      19.08116638      12.45101004
F       28.29412634      21.24471457      12.51105888
F       29.55994140      23.42862748      12.53984181
F       30.92509723      25.58311906      12.57214222
F       32.30150051      27.78522921      12.59187487
F       33.64871134      30.00075402      12.58237320
F       34.97470143      32.21059999      12.54980284
F       36.28270360      34.40020722      12.52028720
F       37.60885836      36.56065822      12.51660690
F       38.96709067      38.73764911      12.53577745
F       40.33911037      40.93903795      12.54438113
F       41.72732966      43.06261851      12.59800092
F       43.20058071      45.28291329      12.63504554
F       44.65388868      47.51985386      12.54433825
F       26.75153944      14.77196639      12.55298155
F       28.07922727      16.87598183      12.51868633
F       29.44395614      19.00077572      12.52135443
F       30.80549734      21.17181963      12.53609793
F       32.15072211      23.34884886      12.55627390
F       33.50683253      25.53311676      12.57015054
F       34.85819968      27.72981248      12.57254325
F       36.19810965      29.92759051      12.56237097
F       37.52333690      32.12141044      12.54668004
F       38.84797480      34.30822217      12.53589901
F       40.18570604      36.48845586      12.53535305
F       41.53797694      38.67036604      12.54056157
F       42.91154382      40.84792833      12.54095687
F       44.30633948      43.04441510      12.52264914
F       30.69829366      16.77608840      12.56211697
F       32.04054917      18.93085732      12.55209136
F       33.38314080      21.10509691      12.55513029
F       34.73177314      23.28707568      12.56226360
F       36.07814034      25.47443579      12.56716630
F       37.42449137      27.66058319      12.56595510
F       38.76078627      29.85442927      12.55865085
F       40.08463405      32.04608616      12.54935903
F       41.41757265      34.23228886      12.54260747
F       42.75862711      36.42012883      12.53901022
F       44.11127850      38.61313647      12.53027079
F       34.62129010      18.85836838      12.56323800
F       35.96237099      21.04048692      12.56209880
F       37.30751218      23.22708520      12.56686825
F       38.66966699      25.40710161      12.57351762
F       40.00495210      27.58476171      12.57659317
F       41.32980536      29.76689989      12.56534382
F       42.64699946      31.97107086      12.55304062
F       43.98326010      34.16488338      12.54391036
F       38.53187140      20.97610616      12.56759568
F       39.89984090      23.17054363      12.57982300
F       43.87938183      29.68859778      12.57205606
F       43.74803293      25.29232462      12.59884044
F        0.32364482      20.69292285       7.12324523
F       26.92748480      14.44875056       7.24436368
F        1.24697945      49.75737489       7.19877795
F        1.14045540      45.36937140       7.22102525
F        1.04164159      40.90046415       7.23524748
F        2.37127234      43.09243726       7.23896758
F        3.69227885      45.29753641       7.23227458
F        5.01048101      47.48129795       7.22556231
F        6.33712460      49.65332259       7.22408359
F        7.67641235      51.82446509       7.22750396
F        9.03229449      54.01338831       7.23199865
F        1.00802377      36.47680928       7.21702356
F        2.29493138      38.63372097       7.24781561
F        3.60347895      40.82260215       7.25093838
F        4.93054427      43.01459085       7.24825937
F        6.25844895      45.20730901       7.24457775
F        7.59564232      47.39202011       7.24262721
F        8.92804395      49.57753085       7.24036045
F       10.26456255      51.76091504       7.23583063
F       11.59183444      53.95653108       7.22699262
F       12.91712615      56.17528346       7.21906404
F        1.19482233      32.10478833       7.12745785
F        2.34844333      34.21108315       7.25533541
F        3.57714141      36.35168051       7.29434182
F        4.84388057      38.54367925       7.27733122
F        6.15911057      40.74804937       7.26171938
F        7.49017020      42.94734000       7.25501090
F        8.82626924      45.13871740       7.25370798
F       10.16459479      47.32326079       7.25289393
F       11.50013701      49.50434689       7.24662503
F       12.82751460      51.68803420       7.23024644
F       14.12751169      53.88710806       7.20114663
F       15.42256546      56.13586259       7.16365417
F       16.74852627      58.41872966       7.17134933
F        1.13113840      27.64158187       7.06769282
F        2.52196736      29.73505232       7.28005524
F        3.68497846      31.91206452       7.39569678
F        4.89634107      34.05743485       7.42137219
F        6.09194120      36.24650611       7.34948115
F        7.37819657      38.48470958       7.28101149
F        8.71632498      40.68806372       7.26226531
F       10.05557664      42.88601650       7.25860812
F       11.39962706      45.07291132       7.26277923
F       12.74176050      47.25172839       7.26373258
F       14.07450499      49.42855482       7.25003115
F       15.39523134      51.59912005       7.21496031
F       16.59632867      53.80825023       7.13162281
F       17.88099468      56.16022551       7.04617963
F       19.22548806      58.46353716       7.03808502
F       20.54743019      60.73304483       7.13058533
F        1.52950547      22.96017784       6.99018400
F        2.09760016      25.60506523       6.93748377
F        3.71997744      27.54633926       7.39184751
F        4.94092015      29.75931897       7.58471452
F        6.18968843      31.87361217       7.61647189
F        7.41546864      33.99611729       7.49905382
F        8.56688689      36.23788829       7.28449077
F        9.94381593      38.44370197       7.26184091
F       11.28283982      40.63937915       7.25705676
F       12.63161820      42.83162754       7.26734751
F       13.98119448      45.00803184       7.28220757
F       15.31686023      47.17942853       7.28483716
F       16.65801649      49.36376980       7.25732218
F       18.02694504      51.51776167       7.20421924
F       18.90273773      53.96815751       6.88378077
F       20.27082226      56.27439069       6.76192368
F       21.65935410      58.59447031       6.77810089
F       22.95956149      60.97507005       6.90042760
F       24.48256705      63.19819555       7.26127467
F        0.35886099      16.25806608       7.17751661
F        1.64501345      18.39958260       7.11544722
F        2.85619515      20.52034418       6.96062000
F        4.03581053      22.62026712       6.69985780
F        4.02462111      24.77183407       6.54416371
F        5.67740464      25.93228325       7.14446248
F        6.43687345      27.94994049       7.43129762
F        7.64592051      29.95128467       7.49665219
F        8.88453976      31.98272138       7.42349305
F       10.14574277      34.06692541       7.20965291
F       11.24001190      36.27140577       7.20986744
F       12.53740995      38.40102996       7.25323720
F       13.85726300      40.61094009       7.25666144
F       15.22367912      42.78391584       7.29272996
F       16.57847195      44.93793430       7.32292169
F       17.82758430      47.11625411       7.30914750
F       19.29489319      49.50291803       7.32755967
F       20.98052169      53.16627605       6.91392588
F       22.40266005      55.53982382       6.79035736
F       23.76645148      57.78633141       6.84885014
F       24.87209897      59.84708396       6.85822361
F       26.06675925      61.62114435       7.21450917
F       27.05185952      63.55274118       7.38775304
F        0.29129116      11.82588100       7.20570035
F        1.61997617      14.00194427       7.18699478
F        2.93807837      16.15698859       7.14812085
F        4.24689975      18.28209409       7.05952517
F        5.39675707      20.73158535       6.90615968
F        6.55386529      23.31196681       7.01100123
F        7.89428249      25.52331352       7.19938162
F        9.00984383      27.73001500       7.28922727
F       10.28120541      29.83342770       7.31686760
F       11.58542441      31.92163050       7.24085646
F       12.90521526      34.07611316       7.14727066
F       13.97043311      36.21830050       7.26437528
F       15.07445032      38.41419913       7.19961739
F       16.45910331      40.59005737       7.27496914
F       17.84485941      42.74627712       7.35685134
F       19.25661255      44.87657901       7.40371262
F       20.12582276      47.42423644       7.23639919
F       21.89150579      51.12189034       7.26438076
F       23.41819310      53.42611055       7.10850787
F       24.83010027      55.69489302       7.10135612
F       26.19065013      57.97466744       7.22414348
F       27.57272047      60.11429500       7.38140746
F       29.39925530      63.31688549       7.43444093
F       30.69776222      65.67605855       7.27893196
F        0.18671469       7.38373408       7.21714802
F        1.52485303       9.57092321       7.21535361
F        2.86485364      11.75450268       7.20496298
F        4.20346376      13.93086406       7.18570819
F        5.52704109      16.12442554       7.16255162
F        6.71257965      18.45786239       7.15306840
F        7.81638682      20.91080624       7.07069866
F        9.05866760      23.20498486       7.13482419
F       10.33901906      25.42593525       7.20334061
F       11.60024749      27.60709405       7.23894220
F       12.91808711      29.75522534       7.24085548
F       14.24600338      31.92623533       7.22962218
F       15.53960760      34.06820360       7.19399058
F       16.72736830      36.21232755       7.08111146
F       17.73887298      38.44628356       7.16257274
F       19.06249555      40.58257977       7.35792847
F       20.52289424      42.79916824       7.52860738
F       22.12837015      46.58871560       7.28108791
F       23.06814490      49.08627097       7.34573629
F       24.51865514      51.28057278       7.24625844
F       25.92919610      53.51020335       7.20743699
F       27.28981856      55.75752455       7.24130090
F       28.60903663      57.99463977       7.34246461
F       29.74203031      60.45474533       7.47435972
F       31.83628076      63.37511346       7.34660825
F       33.22307050      65.66884070       7.27626384
F       34.57383529      67.88753817       7.24552688
F        1.40380453       5.10331802       7.21089980
F        2.75140322       7.31799556       7.22103746
F        4.09657911       9.51034442       7.22179100
F        5.44597139      11.69615810       7.21881687
F        6.78385145      13.87576957       7.20789513
F        8.02500806      16.08307184       7.14421341
F        9.10482727      18.62882671       7.06986779
F       10.29999576      20.88508602       7.15897872
F       11.58341762      23.12495234       7.17660602
F       12.87497464      25.33710601       7.20282278
F       14.18914804      27.52509335       7.21715999
F       15.52538822      29.70398060       7.22424622
F       16.87290024      31.86361125       7.23428922
F       18.20586125      33.97526010       7.19101003
F       19.50651850      36.16942922       7.11418938
F       20.40645007      38.45258313       7.25328001
F       21.48447789      40.65822242       7.51285004
F       22.82218966      44.50494550       7.54014714
F       24.39014947      46.92148229       7.38871440
F       25.69170624      49.10840225       7.31811295
F       27.07522828      51.29969924       7.27370932
F       28.44245928      53.51773065       7.27112384
F       29.78023819      55.73403877       7.30492422
F       31.04825991      57.88746401       7.36187678
F       31.89737157      60.00930585       7.24896054
F       33.61578680      61.33445453       7.22152315
F       34.48348681      63.48510059       7.28655938
F       35.78549143      65.63384021       7.26152031
F       37.12865388      67.83488823       7.24248793
F       38.47445201      70.03612202       7.23551939
F        1.31457684       0.71161398       7.19724182
F        3.95670583       5.05448671       7.22024223
F        5.31850925       7.26634920       7.23027555
F        6.67325595       9.46071358       7.23877856
F        8.03135899      11.64424472       7.25472423
F        9.38960465      13.79386716       7.25562043
F       10.48500191      16.24755010       7.17357988
F       11.62447822      18.57634679       7.20427361
F       12.83092549      20.82626414       7.21155278
F       14.11964858      23.05517797       7.20170567
F       15.43494690      25.27144449       7.20440672
F       16.77398246      27.47590047       7.21885644
F       18.13331839      29.67145125       7.25095899
F       19.50904928      31.83968438       7.30225011
F       20.89544574      33.96852417       7.35035498
F       22.14897340      36.20224944       7.31052902
F       23.01555301      38.45312368       7.40216249
F       23.64136088      40.66532285       7.33025392
F       24.16482646      42.76219685       7.45424881
F       25.49151349      44.74735559       7.39067876
F       26.88192116      46.91016550       7.32498904
F       28.25739606      49.08463145       7.29607698
F       29.62082559      51.27248623       7.28533887
F       30.96700793      53.47229810       7.29112918
F       32.29489677      55.68115340       7.31538180
F       33.59647321      57.96024324       7.35545724
F       35.82413659      60.99958235       7.34882704
F       37.00475358      63.36271910       7.25777643
F       38.34408223      65.58188743       7.24134431
F       39.69325124      67.78311058       7.23535458
F       41.04103398      69.97890477       7.23074991
F       42.40071852      72.18675964       7.21779513
F        5.17018170       2.81120361       7.21752757
F        6.52888155       5.01547079       7.23178363
F        7.88469193       7.21775957       7.24188849
F        9.24889381       9.42998400       7.27047101
F       10.62375235      11.65439751       7.34867377
F       11.91147874      13.92270343       7.50135358
F       12.91725680      16.20344154       7.42353675
F       14.07755698      18.49361358       7.31579132
F       15.33928172      20.75791321       7.23874874
F       16.65780420      23.00501029       7.20536674
F       17.99586543      25.23216932       7.20460885
F       19.35240246      27.45157407       7.23675671
F       20.73184553      29.67164247       7.30682001
F       22.12806753      31.90461118       7.45258557
F       23.44516755      34.20990450       7.72114263
F       24.57817621      36.41055633       7.50882519
F       25.69255036      38.35163110       7.06180975
F       25.76906791      40.57054830       6.97667733
F       26.71633872      42.66790476       7.29042372
F       28.08925574      44.74278793       7.27201048
F       29.46141186      46.87479099       7.27797381
F       30.82294259      49.03436733       7.28098954
F       32.16700468      51.21273996       7.27956343
F       33.49204363      53.40862150       7.27642889
F       34.79385777      55.62758331       7.27517098
F       35.94995243      57.96828570       7.32679714
F       38.19164486      61.07107905       7.24589760
F       39.55523517      63.33973931       7.22547599
F       40.91466136      65.53514766       7.22746765
F       42.26113853      67.72650945       7.23045186
F       43.61132354      69.93954916       7.22410051
F        9.09143011       4.96499863       7.23407300
F       10.44089734       7.18827286       7.25098825
F       11.79849581       9.43668192       7.31216986
F       13.13053953      11.71246737       7.45661739
F       14.36738781      13.91955868       7.65795234
F       15.28997699      16.14603937       7.53260822
F       16.52744590      18.43920959       7.31659433
F       17.84961286      20.75084604       7.22220437
F       19.20771432      22.98270726       7.18571776
F       20.55378500      25.21474991       7.20025238
F       21.91937459      27.46498486       7.26368245
F       23.29955792      29.71915738       7.39141588
F       24.60880119      32.04394711       7.58374024
F       25.81891588      34.28080148       7.67387509
F       27.09462187      36.39863783       7.31764689
F       28.39565135      38.42993493       6.88473464
F       28.08973563      40.66618559       6.92929304
F       29.36354805      42.64628386       7.13998738
F       30.71074916      44.70011476       7.21374544
F       32.05505346      46.81139349       7.25748588
F       33.38680883      48.96071012       7.26906412
F       34.70884678      51.13157820       7.25594147
F       36.00768565      53.32304435       7.22704197
F       37.26187616      55.49800971       7.20154813
F       38.15577663      57.66836804       7.05807584
F       39.89251462      59.01544248       7.00579744
F       40.83127935      61.16745905       7.16320096
F       42.15181449      63.30035730       7.20574332
F       43.49310325      65.47767816       7.22507491
F       44.82799857      67.67055303       7.23166304
F       12.96861379       7.17053673       7.23691543
F       14.30730440       9.44606324       7.31474962
F       15.61211963      11.71316503       7.48186365
F       16.82446515      13.87031241       7.66894001
F       17.61900670      16.08163271       7.50197092
F       18.98785800      18.57637794       7.24598662
F       20.40593260      20.74412573       7.16610630
F       21.78025405      22.97483356       7.16316451
F       23.09791920      25.26474039       7.16150763
F       24.48653952      27.52989532       7.27913646
F       25.79065935      29.85864603       7.37736240
F       27.06829469      32.20600474       7.58999317
F       28.36356791      34.32089946       7.41667203
F       29.73384104      36.41542881       7.14019633
F       31.11201144      38.41041685       6.81335336
F       30.70335228      40.62665605       6.83046752
F       32.03002724      42.56871228       7.11273547
F       33.33940130      44.60184267       7.21952420
F       34.63208686      46.71681644       7.26564896
F       35.94443155      48.86737193       7.25544392
F       37.22974642      51.03003006       7.20626714
F       38.50394536      53.23144165       7.12622268
F       39.70969498      55.55132138       7.06969710
F       42.16214409      58.83574769       7.07996332
F       43.42407809      61.06774499       7.16230662
F       44.74381380      63.22917630       7.21524496
F       16.79472321       9.44955087       7.25255289
F       18.08825359      11.70825475       7.41645331
F       19.31372306      13.92157453       7.52227179
F       19.73485814      16.44591134       7.23241783
F       21.56798555      18.51389282       7.07629434
F       23.00532911      20.80146908       7.10514299
F       24.33081931      23.04505746       7.06167430
F       25.71127957      25.40642807       7.10790679
F       27.06653309      27.80057696       7.37312594
F       28.40147864      30.10363302       7.39132415
F       29.67848778      32.22892367       7.37154908
F       31.03706985      34.32950156       7.23802232
F       32.42495127      36.41795444       7.08616959
F       33.81435058      38.39147159       6.89059508
F       33.46877261      40.59089164       6.91146557
F       34.78911999      42.40368632       7.22903132
F       35.95630581      44.44577954       7.27770686
F       37.16843956      46.68398464       7.28243112
F       38.53441003      48.74273341       7.23185413
F       39.68762323      50.91096013       7.12626594
F       40.96670818      53.14044184       6.95894402
F       41.94122810      55.54294652       6.78368066
F       43.79887844      56.79254849       6.82200414
F       44.77342695      58.88954635       7.11989649
F       20.52873272      11.64793509       7.29126183
F       21.73680561      13.53300631       7.08481017
F       21.57081843      15.59865218       6.66062445
F       23.42220289      16.67297117       6.80707700
F       24.37109187      18.79431354       6.97490707
F       25.67890024      21.06314365       7.18074948
F       27.09068050      23.37869714       7.13169115
F       28.41763108      25.71336436       7.21428821
F       29.65627425      27.89149702       7.30885331
F       30.97507156      30.03995454       7.30936837
F       32.31738311      32.17788301       7.25899918
F       33.69874188      34.31764869       7.18262882
F       35.12350547      36.48500418       7.13056099
F       36.39054066      38.85803490       7.17424926
F       37.50302735      40.95975222       7.26678043
F       38.88445659      42.71720385       7.13568321
F       38.58544615      44.87217336       7.16023989
F       40.00149439      46.57606384       7.34936303
F       41.22772720      48.49214936       7.29979489
F       41.97212533      50.56491183       6.95827200
F       43.93864554      51.49742299       6.56956838
F       43.25854307      53.61297169       6.50022945
F       45.28801353      54.50069211       6.80548124
F       24.35226108      14.34774441       7.12889765
F       25.81589755      16.70260566       7.05989158
F       27.05855887      19.01722603       7.11711503
F       28.29534985      21.20441113       7.18616771
F       29.62456668      23.42512272       7.20746572
F       30.94368631      25.63400318       7.24377127
F       32.24684902      27.81084430       7.26459178
F       33.57770172      29.96858185       7.25447819
F       34.93301804      32.13010843       7.22262193
F       36.30234879      34.31260127       7.19438987
F       37.64606157      36.54462032       7.18818328
F       38.94992031      38.74869442       7.20294024
F       40.30961727      40.88018021       7.21863965
F       41.53823912      43.22055039       7.26144712
F       42.70977440      45.35764025       7.31344283
F       43.93127014      47.40780508       7.23256568
F       44.99035084      49.51179695       7.10110758
F       28.25144611      16.71004422       7.19442115
F       29.55349220      18.95339361       7.19461585
F       30.85650017      21.16697076       7.20890620
F       32.17691776      23.36650555       7.22736921
F       33.50068685      25.55495552       7.24143284
F       34.83208338      27.73011070       7.24355776
F       36.17281636      29.90084970       7.23314365
F       37.51881214      32.08231729       7.21802860
F       38.86213382      34.27991130       7.20725035
F       40.19329562      36.48205493       7.20628406
F       41.51883260      38.67407359       7.21299365
F       42.82957371      40.87349235       7.21326434
F       44.10088853      43.05053633       7.19512835
F       30.75302498      16.67554560       7.23522820
F       32.08110408      18.89788032       7.22368145
F       33.40965434      21.10306771       7.22613283
F       34.73987098      23.29579015       7.23303358
F       36.07168150      25.47895108       7.23562719
F       37.41287940      27.65295055       7.23207370
F       38.75377395      29.83618046       7.22482753
F       40.08642840      32.02528143       7.21785522
F       41.42155639      34.21778324       7.21333078
F       42.75110838      36.41169907       7.20989281
F       44.07540027      38.59607165       7.20166713
F       34.63130979      18.83996191       7.23410712
F       35.96970914      21.03814793       7.23271382
F       37.30856185      23.22863008       7.23064345
F       38.66561196      25.40456844       7.22364700
F       40.00053478      27.57568712       7.21431947
F       41.32905946      29.75300129       7.21549140
F       42.64870437      31.95618736       7.21681076
F       43.98301624      34.14860104       7.21450729
F       38.53263456      20.97470415       7.22974939
F       39.89973441      23.16943806       7.21717982
F       43.88126989      29.67647354       7.20942147
F       43.74989174      25.28655578       7.19597173
C        1.90496475      83.21384994      11.01262775
C        2.04862107      84.70783825      10.57920136
C        1.59619477      78.82589421      10.91826870
C        1.78196381      80.28214324      10.40554718
C       16.94384825      59.70805918      10.67474905
C       18.28450164      60.35081879      11.17462754
C       20.89299448      61.74283146      10.64958509
C       22.26016347      62.30453327      11.14147954
C        2.52699649     101.03037817      11.21585987
C        2.41541659      96.62301013      11.20215026
C        2.45371927      98.10350461      10.70958214
C        3.74203094      98.80661917      11.16689376
C        3.78011582     100.27023568      10.71629747
C        5.07124808     100.97698192      11.16851151
C        5.11129461     102.44812335      10.71516449
C        6.39666796     103.14945251      11.16470524
C        2.29683682      92.14791902      11.18598137
C        2.33965839      93.63782288      10.68380129
C        3.63587810      94.35169343      11.19378500
C        3.67109835      95.84753040      10.69607833
C        4.96479862      96.55233365      11.20105378
C        4.99630845      98.03596088      10.70587420
C        6.28805643      98.73793389      11.20658134
C        6.32216648     100.21204969      10.70896957
C        7.61900355     100.91493047      11.20509850
C        7.65453762     102.38411790      10.70319120
C        8.96193455     103.08849921      11.19631445
C        8.99853898     104.56025911      10.69127414
C       10.31682587     105.27096575      11.18683746
C        2.15075237      87.67826288      11.16142038
C        2.21581221      89.17107473      10.67030049
C        3.51085273      89.88903811      11.19695787
C        3.56076461      91.37411785      10.68947903
C        4.85878631      92.08860411      11.20115974
C        4.89924280      93.57347946      10.69295577
C        6.19680367      94.28198274      11.20106779
C        6.22834844      95.77003373      10.69671051
C        7.52769308      96.47340401      11.20116495
C        7.55475538      97.95922891      10.69945453
C        8.86080360      98.66037268      11.20079490
C        8.88923060     100.14220029      10.69769174
C       10.20014953     100.84475065      11.19693063
C       10.23415647     102.32099858      10.68998463
C       11.54825090     103.02814780      11.18862629
C       11.58686222     104.50341749      10.67921933
C       12.90066914     105.21219411      11.17722743
C       12.93844272     106.68922340      10.67231848
C       14.25557223     107.39018505      11.16843364
C        3.32368503      85.42077703      11.18670042
C        3.42331990      86.91184846      10.69216146
C        4.71261021      87.63847164      11.23892062
C        4.77994213      89.11630464      10.71504392
C        6.07974848      89.83558326      11.22561304
C        6.12557853      91.31197956      10.70644664
C        7.42713774      92.02083575      11.21192400
C        7.46386824      93.50336243      10.70034415
C        8.76295663      94.21054344      11.20561450
C        8.79643066      95.69464682      10.69802887
C       10.09630717      96.40077254      11.20434429
C       10.13069581      97.88321005      10.69706214
C       11.43330158      98.59030265      11.20351276
C       11.47042668     100.06987576      10.69395949
C       12.77718953     100.77943765      11.19715367
C       12.81702494     102.25621575      10.68390166
C       14.12885437     102.96758525      11.18033337
C       14.16862536     104.44255894      10.66525371
C       15.48965761     105.15022917      11.14896815
C       15.52301567     106.62423836      10.63779970
C       16.85460053     107.31581027      11.10846145
C       16.87491616     108.79768691      10.62875215
C       18.21153053     109.46281012      11.10824636
C        3.02738757      80.95848210      11.12222609
C        3.21405945      82.44359289      10.64287858
C        4.45476777      83.15422285      11.29597925
C        4.60524598      84.64685360      10.77286021
C        5.86764207      85.37796696      11.34499934
C        5.98850710      86.85786685      10.79149889
C        7.28786240      87.59182385      11.29474762
C        7.34881281      89.05487932      10.73923056
C        8.65532712      89.75912934      11.23101169
C        8.69464123      91.23958378      10.71272539
C        9.99466872      91.94637242      11.21277286
C       10.02949910      93.43108672      10.70367776
C       11.32771139      94.13842723      11.20906615
C       11.36345228      95.62312076      10.70374394
C       12.66178073      96.33113021      11.21326146
C       12.70131370      97.81419141      10.70529118
C       14.00196920      98.52497297      11.21406142
C       14.04480156     100.00438322      10.69916627
C       15.35051530     100.71691390      11.20033956
C       15.39437419     102.19259525      10.67722491
C       16.70826254     102.90399996      11.16470338
C       16.75195730     104.37475797      10.62760906
C       18.08649886     105.07680370      11.07211171
C       18.11103245     106.54330501      10.54251128
C       19.45959105     107.19870522      10.96620290
C       19.46460547     108.70005677      10.50217432
C       20.80756765     109.33459606      10.94300643
C       20.81439703     110.85607548      10.54148017
C       22.16120936     111.46591101      11.01106136
C        2.39861776      76.44151347      11.02341421
C        2.88307790      77.94896663      10.58049631
C        4.03652970      78.60398893      11.41856738
C        4.33248873      80.12542112      10.85002018
C        5.49762239      80.80944337      11.58080173
C        5.74253602      82.34353959      10.98471409
C        6.92102356      83.04871051      11.65568872
C        7.14423637      84.56776123      10.98941909
C        8.34582160      85.30107178      11.58189209
C        8.54768601      86.77559542      10.84873940
C        9.85985677      87.46315507      11.24570495
C        9.91433014      88.96414812      10.72569467
C       11.21432529      89.66711604      11.21523615
C       11.25730372      91.16225527      10.70621319
C       12.55503837      91.87145205      11.20638363
C       12.59173021      93.35998720      10.70499864
C       13.88748436      94.06537035      11.21744902
C       13.92766637      95.55360475      10.71573828
C       15.22203324      96.26258328      11.23218579
C       15.26826305      97.74676722      10.72224917
C       16.56723146      98.45747227      11.23367779
C       16.61563158      99.93576005      10.70957797
C       17.91961241     100.63931769      11.21137180
C       17.97004167     102.11362224      10.67699610
C       19.27760022     102.81089961      11.16866064
C       19.33167479     104.26528320      10.53544946
C       20.68040619     104.86021901      10.92155595
C       20.69510114     106.38414677      10.34335831
C       22.01709310     106.97018731      10.76354524
C       22.03591783     108.54341201      10.27617010
C       23.35127769     109.10365387      10.75128264
C       23.40129300     110.70078267      10.34081516
C       24.72832601     111.21776057      10.88453572
C       24.81373333     112.78501496      10.57305368
C       26.15886698     113.19015171      11.43836380
C       26.61714871     114.41798169      10.74991072
C       27.89177615     115.12565858      11.28640806
C        1.93647291      71.99327654      11.06125572
C        1.98281016      73.46325810      10.52421286
C        3.37785487      74.10443426      10.91957477
C        3.46398648      75.57058909      10.45463438
C        4.90974624      76.10831702      11.19339565
C        5.27468757      77.64889430      11.48809625
C        6.48936483      78.24408030      10.78839474
C        6.70902257      79.76888315      11.55040089
C        7.89992954      80.47262782      10.95250343
C        8.11298269      81.99428574      11.64323396
C        9.27788298      82.69588743      10.96971222
C        9.53992273      84.28185842      11.56437314
C       10.67773878      84.91578998      10.75195046
C       11.04571523      86.65331704      10.63498706
C       12.33421117      87.31308656      11.15835889
C       12.45922033      88.86964217      10.69998912
C       13.76054163      89.59507091      11.20368800
C       13.81261407      91.09009772      10.69346834
C       15.10945106      91.78820016      11.20586228
C       15.15112685      93.28605718      10.71581311
C       16.43800845      93.98889907      11.24179043
C       16.48716092      95.48190812      10.74338919
C       17.77505824      96.18734697      11.27172579
C       17.83259300      97.66921106      10.75239475
C       19.13364150      98.36310510      11.25691727
C       19.18274270      99.83257758      10.73514544
C       20.47389377     100.47118357      11.27795926
C       20.52643092     101.94761376      10.75243797
C       21.87979720     102.43444762      11.25340334
C       21.94774264     103.79185590      10.55287815
C       23.21616664     104.48223337      10.99994119
C       23.24197889     105.89706357      10.34182989
C       24.51198455     106.57992566      10.89431161
C       24.57024052     108.04548426      10.31738346
C       25.82663711     108.70094994      10.94461685
C       25.94539381     110.23326695      10.47668416
C       27.27011430     110.70548712      11.32193599
C       27.43533257     112.24481104      11.78253800
C       28.96078233     112.94741791      11.67440088
C       29.17735485     114.29329275      10.94152490
C       30.53068538     115.01067747      11.36883178
C       30.60264157     116.41461643      10.74343724
C       31.91845081     117.11259541      11.22557274
C        1.72122698      67.55268344      11.12649792
C        1.76771413      69.03122211      10.60574722
C        3.10312690      69.75062340      11.06227698
C        3.16089415      71.21556489      10.50848976
C        4.55902102      71.92117856      10.89788562
C        4.58948014      73.34236877      10.27706975
C        6.19228918      73.87067663      10.27624963
C        6.31452757      75.27677339      11.00243144
C        7.65653730      75.97960581      10.51758764
C        7.76296989      77.42555934      11.14668101
C        9.06312025      78.15654533      10.68875578
C        9.16641624      79.63386429      11.29584196
C       10.43135710      80.36628177      10.77053059
C       10.54440022      81.87596917      11.31967796
C       11.79202239      82.59559464      10.74376413
C       11.93113666      84.15739669      11.20285703
C       13.17238816      84.81753079      10.58568693
C       13.55900350      86.56096692      10.61419317
C       14.74699223      87.24958033      11.33899621
C       15.00371118      88.79387839      10.70795627
C       16.31090122      89.47579421      11.15962299
C       16.36462357      91.00323402      10.69269624
C       17.64722717      91.69355710      11.22328000
C       17.70074763      93.20638948      10.75076051
C       18.97439551      93.89920357      11.30470997
C       19.04333678      95.39525676      10.80819776
C       20.31989083      96.08127044      11.36612182
C       20.39785833      97.54386196      10.77611763
C       21.71933777      98.10214370      11.26410577
C       21.76006724      99.61404702      10.80451366
C       23.11119484     100.05270947      11.35470150
C       23.17094457     101.45057330      10.78998334
C       24.46525067     102.13400939      11.21733984
C       24.48768031     103.56240831      10.60822249
C       25.77286689     104.25648141      11.10615375
C       25.81235905     105.70799736      10.53960289
C       27.09047599     106.39328386      11.10669536
C       27.15616424     107.86027587      10.59378837
C       28.47896084     108.50169004      11.18342457
C       28.54927505     110.00107516      10.75889401
C       29.89316322     110.64118093      11.34207077
C       30.00166563     112.12022960      10.97044754
C       31.51400553     112.77672000      11.45492451
C       31.77551072     114.18341340      10.89772881
C       33.13531314     114.85840058      11.30734788
C       33.18655922     116.30530869      10.74636034
C       34.50194590     117.00878022      11.22492513
C       34.54116204     118.47571596      10.69627175
C       35.84662854     119.18125954      11.19543405
C        1.58177748      63.09992345      11.15618158
C        1.62155423      64.58164886      10.64328195
C        2.92809855      65.29712362      11.13694995
C        2.97139071      66.77597272      10.61449599
C        4.28555273      67.49570849      11.09665299
C        4.34016819      68.96689251      10.55586971
C        5.68360804      69.69087276      11.01944225
C        5.76500904      71.09568561      10.36917735
C        7.44688137      71.62161457      10.41125697
C        7.42605025      73.06717019      10.89502468
C        8.86674090      73.72989294      10.49553399
C        8.92244836      75.18593199      11.03423745
C       10.26445479      75.90098212      10.59345140
C       10.32096660      77.36504634      11.15220584
C       11.62166472      78.09868481      10.66364259
C       11.69169928      79.57617042      11.21018263
C       12.97174259      80.30620416      10.68856995
C       13.04513068      81.80655173      11.20239348
C       14.31499985      82.52052882      10.66453876
C       14.39256282      84.04732279      11.14285397
C       15.67158010      84.75496921      10.65870276
C       15.93820345      86.27862657      11.31851922
C       17.10747070      86.96248933      10.57221114
C       17.50496135      88.70528550      10.54485400
C       18.79837063      89.35112864      11.11236275
C       18.89594942      90.90667720      10.71329289
C       20.16792091      91.58211123      11.29537064
C       20.23985764      93.10195662      10.84590889
C       21.48906213      93.74772843      11.46833954
C       21.58501440      95.23353305      10.97519289
C       22.93493636      95.71364708      11.52476928
C       23.03615872      97.07024027      10.87892809
C       24.34727988      97.69473401      11.34851836
C       24.35371069      99.11875426      10.79687210
C       25.68052043      99.79955937      11.26111936
C       25.71986209     101.26345548      10.72988148
C       27.02270143     101.95484975      11.20892993
C       27.05298417     103.42198976      10.66710617
C       28.34866035     104.11660834      11.18195450
C       28.39079163     105.58717002      10.66548571
C       29.70061265     106.26636211      11.19943748
C       29.75799286     107.73953798      10.70777691
C       31.07890645     108.42089446      11.25410237
C       31.14900735     109.90409238      10.80233116
C       32.52688069     110.56079232      11.31377526
C       32.64746390     112.00636156      10.83164578
C       34.18823942     112.63622769      11.23611866
C       34.37076804     114.05736836      10.73963198
C       35.70659475     114.74763500      11.23299283
C       35.76217689     116.21756785      10.72084524
C       37.07467341     116.92128056      11.21031067
C       37.11285897     118.39891891      10.69500907
C       38.41792828     119.10694969      11.19284413
C       38.45529042     120.58773965      10.68290545
C       39.75963358     121.29762766      11.18614515
C        1.46634662      58.63780231      11.17539957
C        1.50399624      60.12422062      10.66305453
C        2.80357846      60.83924215      11.16598699
C        2.84316643      62.32280854      10.65410914
C        4.14430733      63.03850788      11.15528432
C        4.18679273      64.51853638      10.63649056
C        5.49030693      65.23597590      11.13468707
C        5.54002278      66.71002177      10.60309185
C        6.85486299      67.41765308      11.11326566
C        6.93068597      68.88746182      10.59609300
C        8.38297230      69.44751942      11.23544451
C        8.61822313      70.96668320      11.19957913
C       10.08406033      71.48788072      10.56164515
C       10.14322116      72.96980984      11.03694822
C       11.48495939      73.66696762      10.56805767
C       11.52414583      75.13188600      11.09739169
C       12.84081944      75.85187098      10.61830363
C       12.88548774      77.32407297      11.14336051
C       14.18499132      78.04815829      10.64555240
C       14.23425068      79.52929987      11.16364332
C       15.52405923      80.24899103      10.65294915
C       15.57227563      81.74091959      11.15563756
C       16.86329426      82.45283946      10.64498274
C       16.91891899      83.95173627      11.14286113
C       18.21932297      84.67933493      10.64301217
C       18.34795340      86.23695214      11.08140668
C       19.62218724      86.91136339      10.49762427
C       20.01777106      88.62697666      10.53586694
C       21.27499510      89.24458490      11.19546116
C       21.42294382      90.79568695      10.81259175
C       22.70123082      91.39854240      11.42459169
C       22.78707057      92.92494547      11.05860474
C       24.06559834      93.41469510      11.78267727
C       24.26246562      94.71826410      11.05386491
C       25.59760681      95.36960915      11.40766441
C       25.60524154      96.81863796      10.84803469
C       26.92659506      97.50281839      11.28570356
C       26.94754786      98.97472412      10.76921383
C       28.25576724      99.67005523      11.24429287
C       28.28828177     101.14634700      10.72474762
C       29.59086039     101.84489175      11.21866309
C       29.62728287     103.32184378      10.70601805
C       30.93452049     104.01575558      11.21501959
C       30.97892203     105.49159601      10.71636090
C       32.29506766     106.18222156      11.23501773
C       32.34708223     107.66154113      10.75341474
C       33.68533054     108.34833925      11.25660859
C       33.76310125     109.83781417      10.78549219
C       35.17833968     110.45434886      11.36328621
C       35.48302736     111.84179289      10.80464116
C       36.86122008     112.53705142      11.29010053
C       36.96082567     113.96814154      10.73146254
C       38.28866190     114.66427559      11.21150532
C       38.33506559     116.13897485      10.69864376
C       39.64319813     116.84555807      11.19171025
C       39.68072904     118.32933806      10.68517323
C       40.98444011     119.03991464      11.18589496
C       41.02449582     120.52530909      10.68107639
C       42.32919901     121.23790189      11.18732975
C       42.37734559     122.72441217      10.68817039
C       43.68028996     123.43806669      11.19881496
C        1.35542889      54.19453720      11.16126966
C        1.39221670      55.65938917      10.69689724
C        2.68520369      56.36894076      11.19195872
C        2.72608479      57.85372313      10.67828022
C        4.02501581      58.57563010      11.17765981
C        4.06506528      60.06179080      10.66634079
C        5.36469299      60.77777820      11.17235062
C        5.40687591      62.26180565      10.66016880
C        6.70628540      62.97765162      11.16912267
C        6.75565550      64.45977842      10.64981185
C        8.06656669      65.17480291      11.16111871
C        8.13854997      66.64710257      10.63100374
C        9.54158095      67.32350546      11.09687527
C        9.58579638      68.75506084      10.53616138
C       11.28331504      69.29276450      10.52817582
C       11.32945488      70.73828948      11.07536397
C       12.70046197      71.43090661      10.61613495
C       12.73965823      72.90824297      11.10336222
C       14.06699321      73.61287847      10.62105023
C       14.10390756      75.08803375      11.12479520
C       15.41264939      75.80129494      10.62978792
C       15.45002158      77.27834660      11.13968126
C       16.74987778      77.99474438      10.64066323
C       16.78581147      79.47567083      11.15174736
C       18.08364242      80.19162163      10.65721114
C       18.11531862      81.67907517      11.16636518
C       19.41727376      82.39634919      10.68950408
C       19.45233085      83.90469047      11.19000322
C       20.76207631      84.61889425      10.72316398
C       20.81967325      86.18597940      11.14405316
C       22.18146090      86.84298376      10.68063794
C       22.48733275      88.47860273      10.66835588
C       23.72744891      88.90807044      11.34587087
C       23.94577153      90.63129095      10.89574952
C       25.24015520      90.86221778      11.58169778
C       25.43544296      92.43809996      11.90067358
C       26.85148580      93.06464757      11.41584544
C       26.81854023      94.51503791      10.82728737
C       28.15846114      95.20978262      11.23185749
C       28.17543754      96.69240911      10.74054402
C       29.48496933      97.38210034      11.21868484
C       29.51346273      98.87179456      10.72678232
C       30.81801951      99.57040587      11.21764033
C       30.85539698     101.05602649      10.71794422
C       32.16236864     101.75613925      11.21579790
C       32.20349239     103.23656498      10.71599260
C       33.51739346     103.93382217      11.21569173
C       33.56038798     105.41189160      10.72387973
C       34.88510314     106.10025645      11.21991549
C       34.93884730     107.57788057      10.74500230
C       36.30239531     108.23100727      11.25898949
C       36.36694590     109.69772260      10.82845179
C       37.84840415     110.34165150      11.31750691
C       38.12097120     111.74929122      10.79415841
C       39.49090373     112.41376138      11.20941633
C       39.54446737     113.88111816      10.69318688
C       40.86185489     114.58066974      11.17554912
C       40.90236060     116.06760715      10.67646408
C       42.20593236     116.77642051      11.17763869
C       42.24540196     118.26583727      10.67712878
C       43.54696375     118.97866738      11.18326661
C       43.59204546     120.46980296      10.68370048
C       44.89119083     121.18790591      11.19291132
C       44.93589419     122.67248714      10.69975309
C       46.22619389     123.37952798      11.16418482
C       46.26265201     124.84350677      10.71430662
C        1.28197301      51.25519009      10.71973510
C        2.58121052      51.96335438      11.21433879
C        2.61281835      53.42786245      10.71141143
C        3.89874156      54.12788827      11.16065136
C        3.93897839      55.59849760      10.69499301
C        5.23845649      56.31459115      11.18904872
C        5.28431221      57.79855676      10.67889999
C        6.58675066      58.51699189      11.18310839
C        6.62794772      60.00197277      10.67559336
C        7.92667929      60.71355139      11.18895442
C        7.97064000      62.20009085      10.68164991
C        9.26664524      62.90954930      11.20448542
C        9.32848977      64.39518349      10.68903868
C       10.64734647      65.10373014      11.21676777
C       10.76333814      66.53174744      10.59498670
C       12.44343623      67.08460134      10.72953165
C       12.46717075      68.55354328      11.16950955
C       13.89589511      69.21214122      10.72628162
C       13.94675703      70.69368549      11.17636414
C       15.29153368      71.37916375      10.67683143
C       15.33006719      72.86044672      11.14758573
C       16.64545827      73.55899478      10.64100728
C       16.68041517      75.03734429      11.13532363
C       17.98369843      75.74576760      10.63190308
C       18.01565206      77.22229455      11.14102283
C       19.31574973      77.93468468      10.64710107
C       19.34244625      79.41093767      11.16502592
C       20.64412721      80.12449162      10.68818697
C       20.66192942      81.60066418      11.21672668
C       21.96985736      82.31257303      10.76694946
C       21.97864828      83.78382761      11.30763391
C       23.30897834      84.49006182      10.93501969
C       23.28645543      85.92434801      11.57135180
C       24.70890811      86.57384392      11.91770748
C       24.85105872      87.77924990      11.00338669
C       26.24612997      88.44296976      11.35675133
C       26.27167647      89.90707759      10.74535586
C       27.68032131      90.61942219      11.01466012
C       27.92186550      92.14986820      10.57668119
C       29.31512126      92.82072821      11.01571504
C       29.37350112      94.38199387      10.64124904
C       30.68365651      95.06272165      11.13426267
C       30.72676698      96.58532355      10.68057966
C       32.02791854      97.28518969      11.18179162
C       32.07229909      98.78576860      10.70167900
C       33.37646661      99.49042124      11.20311721
C       33.42288209     100.97792830      10.70743867
C       34.73502135     101.68229287      11.20136166
C       34.78000312     103.16236452      10.70060257
C       36.10372812     103.86307218      11.18362585
C       36.14538683     105.33846233      10.68764743
C       37.49173090     106.02196760      11.15684714
C       37.53751331     107.49413367      10.68209126
C       38.93187298     108.14731797      11.14069955
C       38.99970300     109.58989766      10.66742926
C       40.56124558     110.19598491      11.04598362
C       40.72663370     111.63312535      10.60180263
C       42.06145317     112.30599031      11.11105161
C       42.11581801     113.80178281      10.64516839
C       43.42048061     114.50693500      11.15467982
C       43.46445950     116.00169291      10.66505086
C       44.76409158     116.71456225      11.17552115
C       44.80627908     118.20639903      10.67653317
C       46.10420577     118.92247483      11.18654998
C       46.14847859     120.41984254      10.69100766
C        5.15198839      53.36188588      10.70638974
C        6.45235006      54.06997884      11.19865853
C        6.49628265      55.54403599      10.68855677
C        7.80790304      56.26224843      11.18661895
C        7.85049127      57.74437462      10.68153698
C        9.15394991      58.45233027      11.19218432
C        9.19373966      59.93704353      10.69339658
C       10.48988397      60.63655331      11.21887854
C       10.53313168      62.12587022      10.72779596
C       11.82171929      62.80782340      11.29401819
C       11.90213629      64.30701191      10.84062499
C       13.26464825      64.87741839      11.58811761
C       13.54958022      66.42306959      11.56351730
C       15.06212791      66.98902327      10.98703435
C       15.13477025      68.49846394      11.32516443
C       16.50692049      69.15397071      10.78855498
C       16.55812711      70.64264172      11.21709219
C       17.88018292      71.31905270      10.67840045
C       17.91920258      72.80207554      11.15033599
C       19.22227317      73.49908980      10.62893216
C       19.25597933      74.97536170      11.12967512
C       20.55512245      75.68143808      10.62264631
C       20.58355324      77.15245979      11.14438699
C       21.88450600      77.86224395      10.65857342
C       21.90464552      79.32956795      11.19524048
C       23.21076103      80.04100558      10.73285494
C       23.22285286      81.49802696      11.29858225
C       24.54751442      82.19914259      10.88355276
C       24.56508819      83.63424093      11.47159047
C       25.93611925      84.31500474      11.14307200
C       26.02389615      85.57618918      11.97703463
C       27.47028402      86.20476048      11.71576328
C       27.41665703      87.53270325      10.88595551
C       28.77138299      88.29780543      11.16299072
C       28.78961207      89.72355002      10.46348416
C       30.21101706      90.48237956      10.83638122
C       30.50644069      92.05238499      10.37991060
C       31.81347898      92.73863101      10.93012521
C       31.91230052      94.29479991      10.55979901
C       33.19764783      94.98956604      11.10467893
C       33.27428582      96.51043545      10.65638013
C       34.56883342      97.21855215      11.17937260
C       34.63002486      98.71504859      10.69371262
C       35.93491290      99.42177298      11.19616759
C       35.99167131     100.90811140      10.69018341
C       37.30858992     101.61978792      11.16939010
C       37.35995926     103.09509813      10.65746530
C       38.69954673     103.80035963      11.11460024
C       38.74006612     105.26607953      10.60406533
C       40.11249503     105.95216518      11.03104094
C       40.15696282     107.43092246      10.55383650
C       41.62226632     108.00892933      11.04875895
C       41.85863787     109.41367462      10.53368539
C       43.22561327     110.06063542      11.03086641
C       43.31486095     111.54204043      10.57454938
C       44.62007840     112.23856718      11.11052216
C       44.67906789     113.73699702      10.63854757
C       45.97565164     114.44913022      11.16485491
C       46.02445838     115.94183984      10.67085300
C        9.07545414      55.49441490      10.68103054
C       10.38594122      56.20171447      11.18478994
C       10.42404161      57.68298072      10.68702410
C       11.73143683      58.38071241      11.20051026
C       11.76645179      59.86768695      10.71986885
C       13.07113048      60.54815019      11.25786577
C       13.11146997      62.04618702      10.81020309
C       14.43916439      62.68750549      11.38398828
C       14.50763050      64.19945152      11.01935851
C       15.91749477      64.77885147      11.70566169
C       16.24125672      66.33947680      11.68430697
C       17.67677627      66.91458307      11.00979765
C       17.76692036      68.43365117      11.33576702
C       19.10630977      69.07930544      10.73530520
C       19.16148761      70.56830907      11.18351658
C       20.46356205      71.24902291      10.62614188
C       20.50240131      72.72741089      11.11757373
C       21.79511606      73.42232189      10.58498972
C       21.83073526      74.89390250      11.10578070
C       23.12993729      75.59635089      10.60411402
C       23.15601605      77.05523031      11.14541817
C       24.45794664      77.75292068      10.66396911
C       24.47292401      79.21123674      11.22507644
C       25.80186609      79.90033958      10.79269781
C       25.81625940      81.31536559      11.35987402
C       27.13924764      81.98973053      10.89566115
C       27.19420178      83.27908412      11.69275620
C       28.66769139      83.84190365      11.65652358
C       28.62145276      85.23983497      11.03163256
C       29.97819001      85.96164435      11.31599766
C       29.96400016      87.41017451      10.67627640
C       31.29539297      88.16318704      11.03283276
C       31.34569992      89.61337809      10.34966858
C       32.72715344      90.38541267      10.80429335
C       33.03395411      91.97601909      10.36522255
C       34.28210834      92.66619437      10.99891615
C       34.43636607      94.22261094      10.59400281
C       35.69470374      94.92140934      11.18002683
C       35.81423773      96.43825292      10.68357039
C       37.11285395      97.13823353      11.19015659
C       37.18517350      98.64359156      10.69501243
C       38.48309841      99.36012903      11.18558068
C       38.55798226     100.84323803      10.65749386
C       39.87574275     101.56520564      11.11832725
C       39.94363303     103.02783044      10.57227495
C       41.30949494     103.73276885      10.97148268
C       41.34420927     105.18147139      10.44534020
C       42.76749596     105.79769896      10.83926838
C       42.79403539     107.25963124      10.39457797
C       44.31643654     107.82811445      10.83076679
C       44.49562322     109.29199414      10.45350678
C       45.79706608     109.97228197      11.05075919
C       45.88444228     111.47525729      10.60537805
C       13.00436458      57.61696262      10.67905458
C       14.32390423      58.30187822      11.18337196
C       14.35085862      59.79300064      10.72676812
C       15.67609297      60.45302137      11.25240121
C       15.71080819      61.95584809      10.84068975
C       17.05967454      62.58732788      11.39458902
C       17.12689335      64.10635539      11.06544475
C       18.56466047      64.68268059      11.68305323
C       18.87386558      66.24933542      11.63457320
C       20.31711378      66.81401030      10.88431482
C       20.38569276      68.33094719      11.21532562
C       21.69551876      68.95782434      10.58366277
C       21.74969036      70.45542847      11.08349185
C       23.04596598      71.12580917      10.54371934
C       23.06920198      72.61726163      11.06391630
C       24.38343896      73.30062435      10.57644361
C       24.41477995      74.76288963      11.06543065
C       25.68419482      75.43916938      10.49527524
C       25.73634675      76.84917905      11.10568523
C       27.00434206      77.56780838      10.63385104
C       27.00599901      78.88554682      11.42703562
C       28.45264423      79.43109174      11.46768361
C       28.45508905      80.82886363      10.81336472
C       29.78544500      81.46294422      11.33854818
C       29.82922252      82.92641072      10.90798702
C       31.16931858      83.61671438      11.30819269
C       31.17422000      85.09997824      10.76356889
C       32.49052405      85.83483245      11.17032825
C       32.50467185      87.30649564      10.56661682
C       33.81458632      88.05459931      11.00208539
C       33.88839414      89.52933673      10.36936050
C       35.22395158      90.28279280      10.92243725
C       35.50889684      91.91139965      10.53827713
C       36.72839717      92.53799374      11.21657116
C       36.92891129      94.14302691      10.73811152
C       38.17879469      94.79750690      11.27762205
C       38.35951255      96.33319352      10.70553586
C       39.60834727      97.05054885      11.22456220
C       39.72365991      98.56845951      10.70878756
C       40.99597425      99.28715453      11.23013628
C       41.11273546     100.77376905      10.63389377
C       42.42081271     101.50701286      11.07378557
C       42.54143045     102.93467161      10.40229350
C       43.97518969     103.57641109      10.69536195
C       44.01204383     105.05353456      10.19552357
C       45.46245003     105.60425035      10.74798394
C       45.64863830     107.04552289      10.31866313
C       18.30785853      61.86648138      10.78973296
C       19.67159389      62.47747607      11.30523810
C       19.75058189      64.00886654      10.99022277
C       21.21319202      64.53141184      11.57242053
C       21.43772869      66.08062502      11.61303392
C       22.95844118      66.54344905      11.31010009
C       22.97224136      68.16585681      11.08432670
C       24.26164212      68.74187438      10.36368581
C       24.34258353      70.21624446      10.95965684
C       25.58290263      70.94873160      10.46502595
C       25.56664466      72.30056234      11.22961817
C       27.00168543      72.85003636      11.25241509
C       26.99930325      74.22625875      10.52761328
C       28.25642337      74.91284945      11.07715786
C       28.33171419      76.35858414      10.54757481
C       29.60841405      76.98721428      11.17534469
C       29.66790293      78.47031742      10.77196376
C       30.99957203      79.13279000      11.25954004
C       31.02804066      80.62488268      10.78744160
C       32.35340367      81.32251767      11.25768567
C       32.38649314      82.80843488      10.74720945
C       33.69735740      83.52749167      11.20420288
C       33.71874612      85.01094405      10.66109781
C       35.01660905      85.73558271      11.12668891
C       35.04827003      87.21203685      10.56024238
C       36.33568902      87.92790548      11.07103262
C       36.40804215      89.41044579      10.52540368
C       37.70150860      90.09709797      11.13857405
C       37.82026348      91.60748733      10.70825419
C       39.13130533      92.30845238      11.21161629
C       39.22669877      93.84705780      10.71985839
C       40.56456844      94.58093666      11.15288959
C       40.80217560      96.24372846      10.74107737
C       42.04708295      96.87082879      11.34428635
C       42.21559135      98.47174005      10.82675824
C       43.47867417      99.13262358      11.31909283
C       43.63225660     100.70800597      10.67095303
C       44.96588938     101.30220124      11.12312231
C       45.34779230     102.66943348      10.33500940
C       22.36665181      63.84713171      10.76183605
C       23.89924867      64.20213003      11.17522176
C       24.15468506      65.52855929      10.56891235
C       25.47449222      66.17153761      11.04520669
C       25.52737772      67.59949768      10.38738090
C       26.77556028      68.28826302      10.99220776
C       26.88540368      69.73818958      10.44172101
C       28.14413478      70.37882969      11.07559933
C       28.21260837      71.85546385      10.62911147
C       29.52279371      72.52995429      11.13566244
C       29.54572358      74.02194754      10.63284309
C       30.85137808      74.70159789      11.16056653
C       30.89390684      76.18120506      10.67259966
C       32.20818176      76.86674069      11.19389099
C       32.25269882      78.35146305      10.71197349
C       33.56598689      79.05170217      11.21381277
C       33.60013052      80.53805321      10.71972049
C       34.91005532      81.24891394      11.20422892
C       34.94196885      82.73336452      10.68713908
C       36.24331563      83.44758232      11.17173766
C       36.27232970      84.92967559      10.64198174
C       37.56811637      85.64091414      11.14211917
C       37.60425351      87.12185419      10.61588908
C       38.90317645      87.82444532      11.13818767
C       38.95289955      89.31074743      10.63996220
C       40.25895201      90.01170419      11.15702383
C       40.32328795      91.50646346      10.66503296
C       41.62474008      92.21054138      11.16561805
C       41.69917860      93.71232350      10.66157594
C       43.00811371      94.39596158      11.22284537
C       43.10861637      95.91339324      10.79675832
C       44.43369967      96.59488816      11.26047284
C       44.50946390      98.11427184      10.78563667
C       45.86833979      98.79283598      11.16704126
C       45.93174741     100.26802598      10.63450164
C       26.73434356      65.27962931      10.65784434
C       28.03312966      65.97728084      11.17503488
C       28.08739775      67.42282420      10.60719541
C       29.38928193      68.11016465      11.14010507
C       29.44315271      69.56881573      10.61659755
C       30.74592993      70.26165599      11.14309776
C       30.79431980      71.73639876      10.63402133
C       32.09484695      72.43391707      11.15794505
C       32.13117823      73.91456064      10.66071506
C       33.43837927      74.61284833      11.17775571
C       33.47817663      76.09327206      10.68234594
C       34.78769938      76.79635364      11.19167455
C       34.82647880      78.27887813      10.69404015
C       36.13449706      78.98556063      11.19403535
C       36.16812217      80.46827693      10.68863739
C       37.47282535      81.17658018      11.18391624
C       37.50396402      82.65931206      10.66968749
C       38.80389665      83.36747241      11.16821394
C       38.83562052      84.85010533      10.65207976
C       40.13451168      85.55707319      11.15736976
C       40.17057442      87.03944656      10.64615360
C       41.47227549      87.74508681      11.15677896
C       41.51396125      89.22918700      10.65317007
C       42.81986943      89.93488308      11.16206853
C       42.86807530      91.42193967      10.66190418
C       44.18044078      92.12452728      11.16253729
C       44.23087791      93.61485330      10.67121218
C       45.55833520      94.31597685      11.14403793
C       45.61244637      95.80227011      10.64496474
C       30.68027933      67.30846772      10.67741477
C       31.98521983      68.01001654      11.18384814
C       32.02624666      69.47707015      10.66131516
C       33.32917696      70.18111313      11.17362142
C       33.36956978      71.65741041      10.66368185
C       34.67270229      72.36138817      11.17649335
C       34.71120808      73.84047534      10.67416854
C       36.01786370      74.54563802      11.18359273
C       36.05669316      76.02523289      10.68237670
C       37.36427746      76.73166284      11.18846106
C       37.40109830      78.21055709      10.68433675
C       38.70765106      78.91526010      11.18694674
C       38.73928832      80.39559106      10.67857543
C       40.04128528      81.10059756      11.17968509
C       40.07114633      82.58331648      10.66777460
C       41.36910320      83.29046416      11.17067336
C       41.40232401      84.77409688      10.65914414
C       42.70179200      85.48223781      11.16392461
C       42.73772355      86.96579539      10.65570583
C       44.04048617      87.67427420      11.16035391
C       44.07986565      89.15743657      10.65381568
C       45.38760396      89.86713054      11.15171527
C       45.43016314      91.34924735      10.64209085
C       34.60155192      69.40222374      10.67933666
C       35.90526753      70.10929232      11.18456770
C       35.94378515      71.58815308      10.67649226
C       37.24890816      72.29578942      11.18333381
C       37.28901199      73.77525123      10.67921989
C       38.59671206      74.48370872      11.18723984
C       38.63866233      75.96138910      10.68519082
C       39.94760895      76.66413091      11.19243937
C       39.98530411      78.13751062      10.68884367
C       41.28478806      78.83777111      11.19543565
C       41.31435150      80.31302757      10.68374579
C       42.60785828      81.01936659      11.18431250
C       42.63606588      82.50364969      10.67216401
C       43.93170148      83.21539822      11.17343855
C       43.96686093      84.70131731      10.66228144
C       45.26631684      85.41305224      11.16517167
C       45.30352402      86.89697982      10.65567496
C       38.51773985      71.52490172      10.67991927
C       39.82427447      72.23566824      11.18794773
C       39.87142486      73.71771183      10.68780121
C       41.17815451      74.42511675      11.19822124
C       41.21728461      75.89527251      10.69843240
C       42.51133978      76.59651233      11.16115022
C       42.54744349      78.06407324      10.70349098
C       43.83680092      78.76604462      11.15845483
C       43.87034407      80.23715356      10.69230199
C       45.16036984      80.94321235      11.19048129
C       45.19408005      82.42815642      10.67651598
C       42.43862289      73.65852653      10.70279976
C       43.72556229      74.35967959      11.16475612
C       43.76007398      75.83143592      10.71223593
C       45.04401914      76.53737154      11.21309630
C       45.08629693      78.00180257      10.71029624
C        1.66102104      71.96933547       8.50279412
C        1.68179693      73.45025209       8.98557300
C        1.68593453      69.01559156       9.04740427
C       26.87738586      65.01685721       9.14004709
C       28.16831589      65.72894051       8.62285653
C       30.72323980      67.22954829       9.12047661
C        2.52899425     101.02808766       8.58506829
C        2.42039078      96.62219821       8.60272896
C        2.45599801      98.10261682       9.09467362
C        3.74543798      98.80443657       8.63970975
C        3.78184347     100.26867044       9.08786834
C        5.07390464     100.97399676       8.63689521
C        5.11255175     102.44618045       9.08675343
C        6.39849358     103.14617207       8.63751349
C        2.31542161      92.15117272       8.61424840
C        2.34697212      93.63874692       9.11958920
C        3.64582214      94.34953442       8.61847952
C        3.67543009      95.84622660       9.11441881
C        4.97079057      96.54916032       8.61385208
C        4.99915428      98.03405867       9.10586258
C        6.29238984      98.73422098       8.60768326
C        6.32412731     100.20974029       9.10126762
C        7.62190370     100.91049363       8.60620613
C        7.65542375     102.38168704       9.10317183
C        8.96221792     103.08434080       8.60911609
C        8.99784312     104.55899763       9.10960804
C       10.31300792     105.27069889       8.61154584
C        2.24042678      87.70422782       8.59396179
C        2.24908186      89.18058167       9.11102558
C        3.55531505      89.88582303       8.62642698
C        3.57759422      91.37246623       9.12847714
C        4.87797243      92.07980804       8.62995067
C        4.90729034      93.56976198       9.13039000
C        6.20574557      94.27599414       8.62749122
C        6.23267492      95.76715016       9.12600056
C        7.53373413      96.46893536       8.62472600
C        7.55781624      97.95647339       9.12164856
C        8.86578184      98.65525251       8.62276528
C        8.89108680     100.13885626       9.11988461
C       10.20246639     100.83789491       8.62050500
C       10.23341539     102.31732472       9.11926481
C       11.54378306     103.02119366       8.61505640
C       11.58088691     104.50193709       9.11662780
C       12.88300719     105.21235132       8.60598044
C       12.92630292     106.69665490       9.11114065
C       14.22197348     107.41592506       8.59765448
C        2.26590304      83.25938178       8.48216703
C        2.19146461      84.73159615       9.03459580
C        3.52314837      85.43819747       8.62783642
C        3.49791201      86.91694176       9.13706685
C        4.81100603      87.61360056       8.67147573
C        4.81579803      89.10567886       9.15618289
C        6.11651095      89.80786778       8.65604544
C        6.14037957      91.30164676       9.14608484
C        7.43919094      92.00876119       8.64079482
C        7.46980496      93.49854735       9.13902043
C        8.76991465      94.20550947       8.63423994
C        8.80076607      95.69187565       9.13588311
C       10.10388761      96.39687673       8.63299285
C       10.13458476      97.88001318       9.13511030
C       11.44053511      98.58333629       8.63217783
C       11.47235565     100.06481092       9.13182401
C       12.77914188     100.76764795       8.62581417
C       12.81330439     102.24971390       9.12257142
C       14.11590147     102.95419149       8.60921034
C       14.15153984     104.43983490       9.10476817
C       15.44259649     105.14869080       8.57928620
C       15.48981341     106.63817107       9.07829588
C       16.76950650     107.36453342       8.54029894
C       16.82995895     108.84922209       9.07139658
C       18.10364149     109.60394470       8.54576347
C        2.32399885      78.77810152       8.44141339
C        2.19489992      80.25527862       8.91220920
C        3.57284361      80.97772927       8.63517397
C        3.47474612      82.46117165       9.12188829
C        4.82987060      83.17058851       8.76533191
C        4.76680194      84.65122956       9.23154784
C        6.10614484      85.34527252       8.79607924
C        6.06818980      86.83874044       9.23792225
C        7.36824912      87.53138846       8.72713199
C        7.37989196      89.03433191       9.18227552
C        8.67504478      89.74384881       8.65997691
C        8.70373534      91.23438480       9.15201097
C       10.00295699      91.94457978       8.64138559
C       10.03538239      93.43038008       9.14245871
C       11.33756424      94.13992578       8.63781061
C       11.37035854      95.62261783       9.14248956
C       12.67594507      96.33006316       8.64198323
C       12.70799504      97.81127296       9.14405566
C       14.01536073      98.51553721       8.64288047
C       14.04839761      99.99751371       9.13799598
C       15.35494661     100.70024423       8.62904209
C       15.38823194     102.18418675       9.11651484
C       16.68756848     102.88752551       8.59367931
C       16.71687257     104.37657960       9.07036876
C       17.98908241     105.08861911       8.50414652
C       18.04952735     106.58524639       8.98796161
C       19.30883820     107.35218707       8.41417640
C       19.38463214     108.81733409       8.95747492
C       20.64717256     109.60739662       8.40357563
C       20.71931153     111.04697257       9.00843169
C       21.97271879     111.86064257       8.49292652
C        2.88198529      74.19657658       8.37357305
C        2.91317349      75.65828232       8.90241521
C        3.80973583      76.62001629       8.21646694
C        3.56749453      78.00480800       9.05280885
C        4.93039816      78.80118026       8.78350457
C        4.78014793      80.21911462       9.33468053
C        6.18901835      81.00097047       8.96178344
C        6.07511880      82.42564434       9.44849607
C        7.47339293      83.16677904       8.99387129
C        7.38476503      84.60674122       9.42880413
C        8.74252266      85.31941499       8.87572736
C        8.65263292      86.78739986       9.27276092
C        9.93143754      87.50098614       8.65959053
C        9.95030386      88.97881245       9.15820237
C       11.24795412      89.69520424       8.64114073
C       11.27200395      91.17398852       9.14499448
C       12.57355620      91.88768653       8.63609600
C       12.60457167      93.36790666       9.14434883
C       13.91047498      94.08097156       8.64644923
C       13.94196132      95.55915769       9.15488286
C       15.25207149      96.26808190       8.66121484
C       15.28142215      97.74782771       9.16167422
C       16.59153760      98.45314056       8.66347769
C       16.62650744      99.93717784       9.14835291
C       17.93860987     100.65001397       8.63704602
C       17.96884638     102.13303186       9.10912605
C       19.27982140     102.85605732       8.58139694
C       19.29182541     104.34236594       8.95753971
C       20.51048064     105.17704061       8.21004707
C       20.61580838     106.58897192       8.77880616
C       21.86772060     107.45853350       8.09250297
C       21.95941305     108.83928995       8.73271990
C       23.22388920     109.73395473       8.11511139
C       23.30173085     111.09570936       8.80794185
C       24.53452536     112.04043137       8.22574407
C       24.58595624     113.38060436       9.03632853
C       25.71602697     114.47505265       8.62294281
C        1.65768234      67.53031942       8.55637435
C        2.95915629      69.70918844       8.49345479
C        2.97650941      71.20474719       8.95225586
C        4.19695440      71.90335087       8.32982520
C        4.21052796      73.44010507       8.73955999
C        5.31585528      74.24802800       8.01548744
C        5.23924415      75.92860619       7.89749112
C        6.53410712      76.77776408       8.38231924
C        6.34685596      78.17328228       9.22148349
C        7.66656532      78.97924877       8.78244962
C        7.66794696      80.39684934       9.41825405
C        8.95377755      81.12205437       8.86803942
C        8.97579895      82.56103024       9.43294207
C       10.23296601      83.23464873       8.79924846
C       10.26497970      84.67468353       9.25988746
C       11.45319426      85.35875028       8.58159342
C       11.26439816      86.78085094       9.08991038
C       12.56476373      87.50142855       8.58654826
C       12.53824809      88.93784971       9.13313158
C       13.83602249      89.64868369       8.63254647
C       13.84862534      91.12096638       9.13626034
C       15.15107210      91.84177488       8.63562720
C       15.17833030      93.31219046       9.15607364
C       16.49128417      94.03012725       8.67166687
C       16.51758031      95.50169016       9.18366879
C       17.83540413      96.21469911       8.70151177
C       17.85649936      97.69475105       9.19507290
C       19.16452540      98.41490013       8.68489908
C       19.21419232      99.91127360       9.16716098
C       20.54386304     100.72244100       8.70128944
C       20.54210206     102.17831472       9.20317800
C       21.91840827     103.28924148       9.06863303
C       21.96326029     104.57732806       8.23464737
C       23.25961843     105.54042707       8.81113030
C       23.35415398     106.88330397       8.11385767
C       24.61638641     107.77674280       8.78836697
C       24.70748469     109.14322672       8.16359141
C       25.96515161     110.04881883       8.91384978
C       25.95751269     111.38806241       8.18513066
C       27.17168959     112.41399956       8.48806447
C       26.96868263     113.96956660       9.22925221
C       28.22510614     114.72898218       8.75295785
C        1.57498491      63.08744833       8.58490336
C        1.60913098      64.57265752       9.08242653
C        2.90717512      65.27488080       8.56597900
C        2.93826449      66.76116314       9.05477559
C        4.22982402      67.45987440       8.52643897
C        4.25303683      68.95499932       8.98996699
C        5.52212480      69.65472834       8.43204291
C        5.49688983      71.17741004       8.82297183
C        6.63287899      72.05052366       8.27339543
C        6.51751924      73.70576181       8.74429979
C        7.78929317      74.47351402       8.39050028
C        7.73433145      75.96279224       8.97087731
C        9.04514904      76.71100043       8.56630717
C        9.00948148      78.18079095       9.15691561
C       10.29236961      78.91160931       8.66390196
C       10.31436581      80.36032809       9.23836562
C       11.59557768      81.06269109       8.69348567
C       11.62385421      82.51934597       9.20416179
C       12.89379117      83.19683618       8.61813774
C       12.91002198      84.65590577       9.06005305
C       14.13814904      85.35035264       8.52054250
C       13.90874048      86.74635700       9.07830616
C       15.25131137      87.47159962       8.64527493
C       15.13769848      88.89600165       9.13658858
C       16.42236843      89.62421537       8.57531913
C       16.43009825      91.07515393       9.12695231
C       17.73950757      91.80943199       8.65412654
C       17.75826660      93.26658733       9.19241756
C       19.08734486      93.99762525       8.73588778
C       19.10062199      95.46197801       9.24229504
C       20.43790315      96.19727190       8.77872248
C       20.44010012      97.68073665       9.20207172
C       21.69879529      98.59642575       8.56272020
C       21.77015349      99.98249671       9.26200332
C       23.14319205     101.11627796       9.26998886
C       23.16498027     102.51180210       8.62865512
C       24.49364446     103.35421295       9.07188303
C       24.56675143     104.78207927       8.47300021
C       25.86210987     105.57865440       9.00960964
C       25.94110530     107.02786785       8.46239759
C       27.21040588     107.80227699       9.06285939
C       27.27637461     109.28298933       8.58283897
C       28.51385760     110.04276231       9.21450179
C       28.54175705     111.54491236       8.71383785
C       29.72543846     112.31513889       9.43447873
C       29.45308337     113.99827105       9.41078363
C       30.70908168     114.67267866       8.80595675
C       30.69433748     116.24420165       9.19096909
C       31.97828947     116.96448395       8.65805941
C        1.46794446      58.63084199       8.59736994
C        1.50457010      60.11921915       9.10110269
C        2.80550260      60.82938558       8.59465205
C        2.84199070      62.31561303       9.09287362
C        4.14496271      63.02213907       8.58410337
C        4.17875902      64.50806039       9.07591560
C        5.48075100      65.21321107       8.56448698
C        5.50559617      66.70380769       9.04577001
C        6.79459856      67.41983071       8.54124747
C        6.79280224      68.92628360       9.02204710
C        7.97900121      69.73307873       8.53405894
C        7.82715713      71.39914761       8.91923661
C        9.06334145      72.16130208       8.44964632
C        9.01040187      73.69336253       8.95012998
C       10.30226829      74.43171144       8.51246110
C       10.29954555      75.92045700       9.05762063
C       11.58962313      76.64588607       8.57947979
C       11.59452553      78.12131504       9.11758497
C       12.88859951      78.83418283       8.61637298
C       12.91447802      80.30149528       9.14178447
C       14.21189645      81.00433817       8.61879198
C       14.23259528      82.47385181       9.11459418
C       15.52538917      83.18452817       8.60800796
C       15.52599035      84.66852505       9.09262867
C       16.80635391      85.32796113       8.57360232
C       16.77678245      86.76855502       9.05708714
C       17.97921365      87.47368503       8.45387815
C       17.75133583      88.88492835       9.00140616
C       19.04297143      89.62786746       8.53769163
C       19.01714116      91.04808574       9.15319972
C       20.33754885      91.80045329       8.73690904
C       20.34903079      93.25093975       9.28967499
C       21.70057209      94.04213221       8.90027911
C       21.66191904      95.50307426       9.42898738
C       23.01657548      96.63010653       9.38690774
C       23.10236156      97.96936653       8.59858557
C       24.33577587      98.91753039       9.23651952
C       24.38225944     100.37036688       8.72280069
C       25.70816442     101.14583765       9.18202970
C       25.76552583     102.59271567       8.62180050
C       27.07119683     103.35003197       9.12133319
C       27.14016375     104.81357807       8.58107242
C       28.42588623     105.55673422       9.11976414
C       28.49089476     107.04035533       8.61464800
C       29.76938469     107.76439448       9.17202268
C       29.80102339     109.27532702       8.71467271
C       31.06768733     110.00010509       9.25444519
C       31.00762238     111.58279812       8.83850769
C       32.29607192     112.22686851       9.33313856
C       31.98642538     113.97787964       9.35644349
C       33.20773176     114.68726982       8.72256515
C       33.23257733     116.21794056       9.18156693
C       34.52163309     116.93598746       8.65506670
C       34.55768301     118.43714910       9.13684929
C       35.85623045     119.14924348       8.62454301
C        1.35649390      54.19068567       8.62965337
C        1.39309184      55.65648878       9.08919530
C        2.68735568      56.36409665       8.59306635
C        2.72788566      57.85034899       9.10047309
C        4.02951592      58.56996283       8.60123419
C        4.06827187      60.05742144       9.10420532
C        5.37353475      60.76973881       8.60101112
C        5.41069323      62.25505658       9.09899851
C        6.71787996      62.96488133       8.59782520
C        6.74856111      64.45141394       9.08858678
C        8.04727118      65.16465407       8.58679293
C        8.05538572      66.66340752       9.06301928
C        9.29258199      67.40112972       8.52020545
C        9.27087949      68.94659220       8.99365104
C       10.37271004      69.84321917       8.44346318
C       10.26279324      71.39371467       9.00129257
C       11.55478666      72.13847816       8.53704530
C       11.54981946      73.65032705       9.02895081
C       12.84392129      74.37159245       8.55387176
C       12.85620713      75.86117866       9.07138230
C       14.15107568      76.57758748       8.58052428
C       14.17294890      78.05690978       9.09648559
C       15.47267994      78.76971231       8.59504736
C       15.50194248      80.24339978       9.10445195
C       16.80380460      80.95568284       8.60199695
C       16.82891816      82.42812543       9.10315211
C       18.13524204      83.12923378       8.61258384
C       18.14376277      84.60085223       9.08937695
C       19.43799671      85.27928042       8.56802821
C       19.41520621      86.74619802       8.97140624
C       20.65587619      87.44825443       8.47907163
C       20.36014968      88.86674432       9.01252779
C       21.66766722      89.63965497       8.63112318
C       21.59726322      91.04143246       9.27395189
C       22.89301373      91.86501442       8.87858997
C       22.91069015      93.29626114       9.52109497
C       24.22442727      94.35560092       9.52191508
C       24.21931535      95.82793337       8.90314002
C       25.55793931      96.67815505       9.30263069
C       25.61248529      98.16279403       8.76121645
C       26.92631597      98.91121863       9.23010698
C       26.97017943     100.37682713       8.69480242
C       28.28247189     101.10909611       9.17711439
C       28.33616662     102.57832254       8.65057888
C       29.63686315     103.30386485       9.15715731
C       29.69258116     104.78448864       8.64782859
C       30.98530170     105.50051619       9.16923241
C       31.03208911     106.99451329       8.68059082
C       32.31742187     107.70298520       9.21317482
C       32.33289415     109.21002785       8.73424823
C       33.62021083     109.94284382       9.22172090
C       33.42257951     111.47941195       8.56854633
C       34.66302484     112.38636239       8.54574939
C       34.48504939     113.94322899       9.16905301
C       35.76271537     114.67745825       8.66250202
C       35.78646037     116.17610603       9.16414312
C       37.07822360     116.88972386       8.64021938
C       37.11802231     118.38180193       9.13448257
C       38.41662474     119.09410154       8.62167105
C       38.45719524     120.58134671       9.12167213
C       39.75995079     121.29333209       8.61483056
C        1.28289896      51.25348907       9.07815670
C        2.58290315      51.96024494       8.58355299
C        2.61376766      53.42575199       9.08300037
C        3.90050562      54.12457432       8.63345960
C        3.94053892      55.59643385       9.09497363
C        5.24179508      56.31209587       8.60185037
C        5.28779995      57.79718490       9.10818018
C        6.59501629      58.51696933       8.60953850
C        6.63542786      60.00156812       9.11426312
C        7.94495910      60.71715943       8.61783139
C        7.98103599      62.20068509       9.12093984
C        9.29171443      62.91798647       8.63346135
C        9.31283745      64.40672329       9.12116862
C       10.60821511      65.12637723       8.62950407
C       10.56107769      66.64381541       9.04572674
C       11.70458012      67.51617408       8.54476135
C       11.57913705      69.13460982       9.00818134
C       12.85569643      69.85064704       8.58082481
C       12.80559283      71.37688541       9.06828317
C       14.09346789      72.09576940       8.58923470
C       14.10143202      73.59753732       9.07341701
C       15.39517087      74.31232090       8.57950151
C       15.41906094      75.80255257       9.08022038
C       16.71650133      76.52017450       8.58236667
C       16.74715555      78.00124397       9.09072590
C       18.05097189      78.72089792       8.59680289
C       18.08291308      80.19653535       9.10798113
C       19.39546469      80.91623415       8.62877442
C       19.42147718      82.38706192       9.14067065
C       20.74312873      83.10188154       8.67983724
C       20.74990787      84.57037631       9.16427071
C       22.07577345      85.27094252       8.72437889
C       22.06232624      86.72208948       9.12721143
C       23.28528422      87.51959695       8.67504213
C       22.94102205      88.89214341       9.16366279
C       24.32425513      89.77398774       8.77475052
C       24.17111545      91.14149204       9.34353035
C       25.40751433      92.06382084       8.60476905
C       25.47168884      93.69500355       8.79573325
C       26.79043275      94.44057585       9.28057704
C       26.81103042      95.93457206       8.76392722
C       28.14003357      96.67350955       9.20471325
C       28.17789643      98.14894060       8.70077296
C       29.49729290      98.86392363       9.17986100
C       29.54141645     100.33935307       8.67336941
C       30.85086041     101.05132442       9.16837668
C       30.89742784     102.53074394       8.66284095
C       32.19984569     103.24075703       9.16626148
C       32.24344259     104.72747263       8.66848943
C       33.54164202     105.43528259       9.17551822
C       33.57266120     106.93409483       8.69238383
C       34.86784566     107.64392362       9.19405049
C       34.86530441     109.17541696       8.73273384
C       36.12234207     109.87443394       9.30288924
C       35.81754980     111.63731910       9.27055120
C       37.07657324     112.32041335       8.72100660
C       37.02821021     113.88683036       9.16532136
C       38.30775029     114.61445350       8.63759790
C       38.34146100     116.11651197       9.13744936
C       39.63749311     116.83531722       8.62040869
C       39.67973537     118.32356076       9.12399585
C       40.98124537     119.03817606       8.61457165
C       41.02424351     120.52393005       9.11894448
C       42.32908761     121.23763403       8.61092451
C       42.37770749     122.72399876       9.11036313
C       43.68114082     123.43745908       8.59994308
C        5.15293010      53.36015591       9.09150200
C        6.45348460      54.06789463       8.59923319
C        6.49771982      55.54393564       9.10689067
C        7.81019960      56.26531005       8.61132733
C        7.85497809      57.74858938       9.11894545
C        9.16340513      58.46724895       8.62093733
C        9.20530180      59.94991411       9.13291105
C       10.51672171      60.67524244       8.64919658
C       10.55064650      62.15632488       9.17055566
C       11.86467582      62.89605208       8.72605300
C       11.85902955      64.38232148       9.26271524
C       13.09080533      65.19210753       8.87660873
C       12.88147941      66.83640802       9.24528652
C       14.14981915      67.52694027       8.79822346
C       14.06751015      69.09411939       9.18994216
C       15.34805273      69.79672360       8.69201088
C       15.34208108      71.32480767       9.13105845
C       16.62877576      72.03592546       8.61621010
C       16.65535745      73.54118945       9.09214654
C       17.94773433      74.26240074       8.58314499
C       17.98215723      75.75110580       9.08217196
C       19.28096080      76.47609744       8.58247282
C       19.31842463      77.95526158       9.09756197
C       20.62545872      78.68663083       8.61453867
C       20.66238585      80.15854700       9.14069921
C       21.98185495      80.90076642       8.68356425
C       22.00836399      82.36495539       9.22588953
C       23.34182406      83.12941673       8.82668178
C       23.34026412      84.59727976       9.39587096
C       24.65750278      85.45307026       9.10280249
C       24.64085690      87.09817489       9.46315503
C       25.89120110      87.80578183       8.87989603
C       25.85326234      89.36258330       9.21766840
C       27.02949975      89.97574788       8.37959732
C       26.89946343      91.53405825       8.31006844
C       28.05868191      92.23112335       9.00976993
C       28.06258824      93.74506891       8.65148366
C       29.38225471      94.44020334       9.10940887
C       29.40030123      95.92624587       8.64595880
C       30.72249273      96.62040051       9.13452203
C       30.75796615      98.10229583       8.65480410
C       32.07148603      98.80063290       9.15261219
C       32.11164617     100.28093649       8.65848332
C       33.41890109     100.98374266       9.15750134
C       33.45724946     102.46610316       8.65714173
C       34.76126964     103.17128756       9.15106347
C       34.79250994     104.66065843       8.65377754
C       36.09480566     105.36797555       9.13959109
C       36.10723918     106.87391520       8.65274633
C       37.39990873     107.58861832       9.13419537
C       37.33484547     109.15285057       8.69247925
C       38.62667979     109.82768709       9.16431342
C       38.33164053     111.59887083       9.25058964
C       39.55261419     112.32987132       8.62281974
C       39.57348139     113.84700913       9.12556476
C       40.86264357     114.57867746       8.60427342
C       40.90242733     116.06513565       9.11581846
C       42.20374586     116.78328856       8.60648983
C       42.24495808     118.26763151       9.11578767
C       43.54803651     118.98233885       8.60970329
C       43.59288648     120.47074972       9.11297352
C       44.89360692     121.18860321       8.60572495
C       44.93708931     122.67229077       9.09973191
C       46.22846490     123.37845301       8.63701408
C       46.26375613     124.84249999       9.08592835
C        9.07367123      55.49769014       9.11686115
C       10.37905569      56.21436332       8.61310173
C       10.42438999      57.69721029       9.12584627
C       11.72805721      58.42290246       8.62973109
C       11.77277330      59.90313477       9.16036503
C       13.07640124      60.64606421       8.68970325
C       13.10963183      62.12060864       9.25565342
C       14.39209473      62.89742820       8.83196178
C       14.37865021      64.37722883       9.45480636
C       15.58844058      65.16938634       9.03461941
C       15.35207334      66.78061887       9.45633475
C       16.61495985      67.47655899       8.90385302
C       16.58854314      69.04197746       9.25856173
C       17.85786877      69.74341380       8.69146924
C       17.88669427      71.27305735       9.13267888
C       19.16811115      72.00442848       8.59872710
C       19.21131853      73.49857390       9.08180366
C       20.50577092      74.22905042       8.56314681
C       20.54565326      75.70987896       9.07428480
C       21.84285872      76.44877974       8.57824903
C       21.88717588      77.92074485       9.11051708
C       23.19204067      78.68044852       8.64131735
C       23.23483213      80.13917279       9.19409915
C       24.55602345      80.91938308       8.76712353
C       24.57735813      82.37218511       9.35282425
C       25.86748594      83.23302867       8.95889606
C       25.91806765      84.68220829       9.60264085
C       27.16789654      85.60138930       9.05018047
C       27.21506876      87.17131686       9.39261754
C       28.45913317      87.85015286       8.67593860
C       28.46792485      89.39844299       8.94814451
C       29.67485897      90.00567678       8.21736294
C       29.45851987      91.58790728       8.24776377
C       30.69600815      92.20608099       8.84566122
C       30.67904980      93.72503631       8.50232268
C       31.98080605      94.38982305       9.02763403
C       32.00137276      95.87720846       8.58798198
C       33.30932496      96.55597292       9.10959464
C       33.34215931      98.03800830       8.63452126
C       34.64672609      98.73058824       9.14521542
C       34.68216024     100.21004330       8.64641719
C       35.98794041     100.91139120       9.14095340
C       36.01558966     102.39236724       8.63313861
C       37.32144670     103.09824961       9.10997754
C       37.33806741     104.58839517       8.60292402
C       38.64455424     105.29915069       9.06530954
C       38.63280305     106.80959222       8.57308804
C       39.93292279     107.55164239       9.00546664
C       39.73427962     109.11378236       8.37112883
C       40.97772423     110.03261158       8.33048082
C       40.83048768     111.57477319       9.02620066
C       42.10972232     112.33356910       8.53862436
C       42.13374994     113.81012632       9.08619090
C       43.43472514     114.53298449       8.58435161
C       43.46989185     116.01111173       9.10412422
C       44.77341794     116.72604644       8.60412900
C       44.81007048     118.21048769       9.11382759
C       46.11113859     118.92526611       8.61121758
C       46.15148412     120.42047974       9.10932064
C       12.98898507      57.64521513       9.11883705
C       14.28048431      58.38164159       8.61451966
C       14.33198059      59.85873226       9.16941255
C       15.61612575      60.62024263       8.68991832
C       15.65572423      62.08667417       9.29599035
C       16.91762927      62.87011733       8.85515823
C       16.91992915      64.33121660       9.52199454
C       18.10445250      65.13180823       9.04688199
C       17.87742935      66.72994896       9.48078116
C       19.10991975      67.42933087       8.85354776
C       19.12557651      69.00226767       9.20437622
C       20.38230910      69.76504298       8.61474000
C       20.43650262      71.25294813       9.09038765
C       21.72575855      71.99246045       8.54406218
C       21.77640959      73.46972881       9.04474980
C       23.07964532      74.22084584       8.54155593
C       23.11301233      75.69183105       9.05316221
C       24.40170239      76.48247355       8.53917499
C       24.45328853      77.91977591       9.11607322
C       25.75875219      78.73626426       8.65746491
C       25.82209332      80.15402855       9.24432795
C       27.10292916      81.07090686       8.74940548
C       27.10969346      82.46174999       9.40358646
C       28.41352468      83.43175132       8.96739761
C       28.47941379      84.97540597       9.47950127
C       29.74402520      85.68322656       8.78553695
C       29.80773042      87.20077936       9.15528611
C       31.07803452      87.85704117       8.50218542
C       31.09621140      89.37862719       8.81345057
C       32.32815598      89.98559626       8.14247592
C       32.08961975      91.55902521       8.15493067
C       33.31119128      92.15652051       8.82845240
C       33.31007666      93.66527186       8.47848665
C       34.59168862      94.32245731       9.05440046
C       34.60922594      95.80318737       8.59577110
C       35.89817026      96.48212299       9.13362580
C       35.92589266      97.96123231       8.64252699
C       37.22458959      98.65904697       9.15318179
C       37.25437026     100.13057314       8.63179935
C       38.56350044     100.83466646       9.10866043
C       38.57087115     102.31190307       8.58143782
C       39.87873756     103.02392496       9.03121503
C       39.87479488     104.51840396       8.49958223
C       41.18267999     105.25033833       8.91461169
C       41.12914299     106.79562452       8.43829042
C       42.41365325     107.54067441       8.90250328
C       42.15296771     109.27592471       8.98479970
C       43.40764457     110.04902955       8.45961622
C       43.37830722     111.54753895       9.01072279
C       44.68364987     112.28195181       8.54047871
C       44.70156843     113.75483716       9.07844387
C       46.00963852     114.46910505       8.59393543
C       46.03692716     115.94943666       9.10952695
C       16.88362408      59.81869239       9.12314253
C       18.15117968      60.59573435       8.62326402
C       18.19914833      62.04996175       9.25668447
C       19.44239590      62.85004819       8.78710327
C       19.47294780      64.30685820       9.45734945
C       20.62747241      65.14073809       8.91362888
C       20.46129726      66.69729439       9.32148043
C       21.57697687      67.55352756       8.47622858
C       21.67973320      69.01019828       9.03927056
C       22.94681588      69.79139753       8.45609378
C       23.00947207      71.24622337       8.99583337
C       24.30893921      72.04695735       8.48438925
C       24.37279391      73.47764294       9.01267232
C       25.65881089      74.33156047       8.43487828
C       25.66856022      75.74052214       8.96971269
C       27.01352970      76.63518413       8.48065755
C       27.00711989      78.01016842       9.13073519
C       28.36377959      78.99263033       8.75218082
C       28.41100960      80.50689764       9.26447903
C       29.69638170      81.30376561       8.76729799
C       29.74022789      82.78761608       9.34465762
C       31.01801720      83.51135604       8.74740519
C       31.07672845      84.99290761       9.21896332
C       32.36762057      85.67676968       8.61146425
C       32.41330069      87.17318849       9.02530445
C       33.71258031      87.83654592       8.45316530
C       33.72509280      89.34848829       8.80874554
C       34.99320831      89.95958115       8.21627252
C       34.78540705      91.51569554       8.23379146
C       35.93544404      92.12717697       9.04621413
C       35.97887959      93.59151299       8.59530755
C       37.20706969      94.27564121       9.21247763
C       37.22254841      95.71848804       8.65531058
C       38.51114172      96.40854311       9.13946178
C       38.51362983      97.89213040       8.65530340
C       39.83058913      98.58931654       9.15515233
C       39.84930805     100.04534953       8.60816128
C       41.16008844     100.75765212       9.07500050
C       41.11914013     102.23267988       8.49053057
C       42.43440105     102.96659646       8.86314476
C       42.39748432     104.48609589       8.32657398
C       43.71344733     105.26802102       8.65509243
C       43.52634495     106.88693914       8.10540822
C       44.79886932     107.81893654       8.14164082
C       44.66049781     109.29139545       8.89017737
C       45.96768067     110.04216143       8.48997168
C       45.94955660     111.50315465       9.05095491
C       20.73620428      62.03085873       9.14830643
C       21.95007685      62.87416968       8.65641196
C       21.99008926      64.36172844       9.22511091
C       23.06050968      65.27151986       8.35980077
C       22.95945944      66.85670825       8.01562656
C       24.37758904      67.75646478       8.12376366
C       24.24788982      69.07966419       8.82771699
C       25.62017227      69.99344342       8.34324001
C       25.58845322      71.36354338       8.96651872
C       26.95381078      72.31565644       8.56204583
C       26.98944434      73.83431793       8.99352332
C       28.32146821      74.61438972       8.50806393
C       28.34368870      76.10000248       9.00400604
C       29.64537121      76.88984954       8.58874810
C       29.66053573      78.35142103       9.19636179
C       30.95020848      79.10722158       8.68711279
C       30.98898274      80.57458214       9.22361502
C       32.28245919      81.29267735       8.68764222
C       32.32771814      82.76889199       9.19278632
C       33.62687359      83.46627307       8.63674429
C       33.67397832      84.95106273       9.10600319
C       34.98408562      85.63944459       8.55924402
C       35.02107984      87.13473324       9.00666574
C       36.34280994      87.82758720       8.50341699
C       36.34116078      89.32871400       8.94942520
C       37.63088065      90.05751647       8.55245963
C       37.59444862      91.49305492       9.16317752
C       38.84797778      92.21705920       8.63980567
C       38.88115457      93.65396544       9.18397138
C       40.10435079      94.27790183       8.45916832
C       39.93551157      95.80539282       8.47964530
C       41.14455557      96.41618477       9.22595337
C       41.20857463      97.85183901       8.71675782
C       42.46665888      98.55591746       9.30054021
C       42.50746709      99.95537784       8.65411131
C       43.79845825     100.74243704       9.11752651
C       43.62675797     102.16911974       8.22681265
C       44.94437342     103.01120410       7.88045695
C       44.82029810     104.65714269       7.82112979
C       46.13333260     105.53068731       8.08240112
C       45.94782028     107.02127642       8.76653183
C       24.34046564      64.98991491       9.04825384
C       25.62670162      65.67626663       8.51175648
C       25.62547991      67.20778351       8.85663963
C       26.96259070      67.95496427       8.42933273
C       26.94353190      69.44948518       8.90043569
C       28.24854827      70.22511561       8.49081660
C       28.24643377      71.69752757       9.05853249
C       29.55126805      72.44472805       8.56517163
C       29.57743487      73.92121731       9.06670191
C       30.88285947      74.65852204       8.58665911
C       30.90680381      76.13832257       9.10497754
C       32.20942684      76.86499686       8.62261528
C       32.23595768      78.34093197       9.15299600
C       33.53637702      79.05387913       8.64348455
C       33.57293371      80.52884016       9.15961680
C       34.87483067      81.23121287       8.63330944
C       34.91592498      82.71058361       9.12786417
C       36.22188069      83.40849549       8.60120677
C       36.26179038      84.89379417       9.08312071
C       37.57143769      85.59499468       8.57255157
C       37.60463978      87.08459884       9.05893404
C       38.90530658      87.79959086       8.56715289
C       38.92105644      89.28849506       9.07246990
C       40.21710772      89.99870793       8.58292841
C       40.22310601      91.47711662       9.09817542
C       41.53874084      92.17625105       8.59447653
C       41.54067940      93.65522915       9.09020825
C       42.82295565      94.38291216       8.63854151
C       42.82400632      95.80398999       9.25331049
C       44.06850652      96.53968026       8.68580172
C       44.12224505      97.95687668       9.26229753
C       45.32339010      98.67750334       8.60270329
C       45.33816380     100.11147441       9.12980856
C       46.37201281     100.91985971       8.45229355
C       46.03389397     102.47626918       8.79477773
C       28.18074581      67.25330878       9.05472726
C       29.48119137      67.97951120       8.57259174
C       29.49154907      69.48274222       9.05180413
C       30.79637816      70.20560827       8.57323932
C       30.81595984      71.69349796       9.07731921
C       32.11942265      72.41380580       8.58785376
C       32.14657207      73.89699614       9.09952066
C       33.45007681      74.61208072       8.60645415
C       33.48021608      76.09187442       9.12170032
C       34.78311811      76.80191807       8.62052569
C       34.81561961      78.27942851       9.13311351
C       36.11978950      78.98396175       8.62264320
C       36.15497367      80.46192876       9.12731134
C       37.46000449      81.16273793       8.61218327
C       37.49621564      82.64428120       9.10868560
C       38.80086935      83.34658427       8.59700487
C       38.83626416      84.83206582       9.09171796
C       40.13810971      85.54039599       8.58624059
C       40.17000428      87.02898676       9.08543918
C       41.46928195      87.73715283       8.58539169
C       41.49612749      89.22321009       9.09195135
C       42.79618302      89.92814332       8.59178090
C       42.82260262      91.40845181       9.10469617
C       44.11285332      92.11865340       8.59230222
C       44.13493504      93.59890414       9.10546824
C       45.41092608      94.30137463       8.57488447
C       45.42789919      95.77724698       9.08487157
C       32.02078371      67.94468483       8.61404322
C       32.04966903      69.44226013       9.10189269
C       33.35085344      70.15566997       8.60273037
C       33.38114266      71.64378251       9.10315535
C       34.68420034      72.35550868       8.60532027
C       34.71659951      73.83817382       9.11299116
C       36.02105800      74.54737736       8.61226941
C       36.05542720      76.02657962       9.12103559
C       37.36061164      76.73275482       8.61489774
C       37.39560638      78.20959229       9.12163117
C       38.70154350      78.91095273       8.61161434
C       38.73454220      80.38995021       9.11436334
C       40.03770065      81.09107411       8.60437961
C       40.06990006      82.57453984       9.10520883
C       41.36927884      83.27970357       8.59709679
C       41.40314535      84.76649719       9.09782042
C       42.70224278      85.47366157       8.59255005
C       42.73512343      86.96047073       9.09448678
C       44.03387926      87.66681273       8.58909838
C       44.06624388      89.15095053       9.09316588
C       45.36202149      89.85629057       8.58071548
C       45.39344852      91.34058626       9.08235138
C       34.61022700      69.38628739       9.11855466
C       35.91174177      70.09739896       8.61332361
C       35.94812026      71.58308310       9.11525894
C       37.25234357      72.29319126       8.61201923
C       37.29030711      73.77471454       9.11708798
C       38.59699747      74.48365687       8.61083460
C       38.63741065      75.96119668       9.11446386
C       39.94571179      76.66248026       8.60525300
C       39.98313748      78.13533231       9.10715665
C       41.28276983      78.83315281       8.59601435
C       41.31309512      80.30868182       9.10208627
C       42.60727081      81.01261169       8.59711080
C       42.63613912      82.49845083       9.10145407
C       43.93217523      83.20789896       8.59699960
C       43.96683492      84.69617196       9.10013568
C       45.26547389      85.40457107       8.59382024
C       45.30019753      86.89090660       9.09442057
C       38.51874419      71.52305670       9.11797200
C       39.82489488      72.23452849       8.60994353
C       39.87157560      73.71718347       9.10999395
C       41.17820292      74.42407232       8.59934936
C       41.21680077      75.89416219       9.09841123
C       42.51100981      76.59402149       8.63397947
C       42.54695213      78.06167752       9.08858246
C       43.83678454      78.76199844       8.63127082
C       43.87039685      80.23373093       9.09229037
C       45.16113582      80.93755748       8.59158321
C       45.19473276      82.42409000       9.09871001
C       42.43900367      73.65782702       9.09509145
C       43.72644381      74.35806019       8.63313508
C       43.76032016      75.82996212       9.08385767
C       45.04485837      76.53445037       8.58230472
C       45.08667367      77.99950196       9.08186710
F        1.76112630      83.19021216      12.38121957
F        1.46133039      78.87674735      12.28906644
F       18.33521920      60.23001073      12.54506558
F       22.20842785      62.17268285      12.50635658
F        2.52567013     101.01642319      12.60191976
F        2.41296293      96.62494314      12.58357204
F        2.28798025      92.14809283      12.56474790
F        3.63466629      94.35080954      12.57306399
F        4.96272787      96.55881015      12.58240009
F        6.28384999      98.74382066      12.58846999
F        7.61305312     100.91755649      12.58699195
F        8.95781107     103.08811300      12.57764949
F       10.32127502     105.26952911      12.56610807
F        2.10753209      87.67409186      12.53889239
F        3.48723068      89.89676150      12.57526962
F        4.85071712      92.09437835      12.57986292
F        6.19657208      94.28174681      12.58003627
F        7.52940116      96.47117569      12.58108070
F        8.86759458      98.65752755      12.58074373
F       10.20455140     100.84716114      12.57685426
F       11.55465576     103.03117555      12.56761615
F       12.90682610     105.21275523      12.55600318
F       14.26962411     107.37558604      12.54690339
F        3.21958418      85.43087885      12.55986925
F        4.65444147      87.67271360      12.61526273
F        6.06349532      89.86208832      12.60350165
F        7.42554618      92.02966427      12.59064114
F        8.76267675      94.21291543      12.58456068
F       10.09498880      96.40170672      12.58338414
F       11.43087149      98.59410823      12.58253811
F       12.77598182     100.78685150      12.57610070
F       14.13297415     102.97780987      12.55911310
F       15.50527669     105.15763564      12.52742063
F       16.89487984     107.29527882      12.48572175
F       18.26459312     109.39720509      12.48314197
F        2.81730060      80.99664961      12.48024472
F        4.26402649      83.20407888      12.65769525
F        5.72693921      85.46283231      12.71172196
F        7.24808314      87.69281249      12.66733053
F        8.66744848      89.77901607      12.60970821
F        9.99759558      91.95226811      12.59160740
F       11.32694222      94.13863349      12.58799862
F       12.65509050      96.33406458      12.59219137
F       13.99212771      98.53421235      12.59292871
F       15.34421244     100.73363041      12.57907479
F       16.70401617     102.93314351      12.54316741
F       18.11974894     105.10484955      12.44921784
F       19.52925594     107.17864899      12.34127420
F       20.87689604     109.26242114      12.31602791
F       22.21687006     111.34466348      12.38143822
F        2.32855220      76.45563212      12.39572915
F        3.69644462      78.75899615      12.73608186
F        5.22950838      80.98668599      12.91315694
F        6.68761389      83.27861126      12.98453819
F        8.13858960      85.55845011      12.90729644
F        9.92884250      87.46879857      12.62364223
F       11.22629850      89.67764158      12.59495122
F       12.55808827      91.87564400      12.58489778
F       13.88033750      94.06511414      12.59622428
F       15.20389191      96.26874526      12.61089691
F       16.54656704      98.47706680      12.61218348
F       17.90098506     100.67410750      12.58999651
F       19.24665743     102.90700329      12.54227118
F       20.72378697     104.95505994      12.29653801
F       22.05426526     107.01935807      12.13993922
F       23.34665944     109.10966224      12.12895153
F       24.74093370     111.17243514      12.27561971
F       25.72989582     113.41837999      12.71308131
F       27.83387681     115.17270877      12.66899380
F        1.97116907      71.97974966      12.43996319
F        3.34940068      73.97278701      12.28504159
F        4.52616569      75.78038729      12.46763770
F        5.60153384      77.61878408      12.82121427
F        6.94156220      79.51587901      12.86859853
F        8.32708980      81.73237802      12.96742402
F        9.79818180      84.07432530      12.88642594
F       12.29784756      87.26226201      12.53111103
F       13.75449553      89.66256519      12.57925178
F       15.11676442      91.78257667      12.58462706
F       16.41413200      93.98492914      12.62037508
F       17.72929601      96.20594751      12.64977082
F       19.10729173      98.39795940      12.63534002
F       20.42851022     100.51832041      12.65367821
F       21.90198372     102.49505982      12.62431171
F       23.18521863     104.56172805      12.37435482
F       24.42497224     106.58561221      12.26528331
F       25.63512702     108.57660518      12.29592059
F       27.08959474     110.15586129      12.56547365
F       27.37462367     112.15769965      13.13726702
F       29.28185932     113.12941868      12.99081444
F       30.60609590     115.12367288      12.73799983
F       31.93441046     117.16512642      12.60347024
F        1.73616667      67.56079436      12.50516173
F        3.12738798      69.78261930      12.44104033
F        4.62550246      72.00305192      12.26928425
F        6.57136997      75.08179140      12.34364279
F        7.87719376      77.27585841      12.50746785
F        9.29599673      79.51084899      12.65790417
F       10.67826969      81.79239454      12.68515605
F       12.03736684      84.19919351      12.56886016
F       14.52370936      87.46847110      12.66220823
F       16.38697341      89.42401872      12.53644428
F       17.63524771      91.66854274      12.60276303
F       18.91083181      93.90264164      12.68244445
F       20.22451822      96.15160671      12.73836648
F       21.71056014      98.12699307      12.64482322
F       23.15270687     100.04331515      12.72802380
F       24.47635154     102.18792696      12.59361796
F       25.73845125     104.29305035      12.48210022
F       27.02261169     106.38011706      12.48129718
F       28.47337605     108.37203214      12.55190486
F       29.82144585     110.57286615      12.72159711
F       31.57854214     112.77483197      12.82298434
F       33.22456877     114.91089498      12.68077636
F       34.52526182     117.04091012      12.60327551
F       35.85068029     119.19385448      12.57420988
F        1.58279929      63.10665550      12.53511249
F        2.92963980      65.30999851      12.51568413
F        4.28062566      67.52936803      12.47496997
F        5.68284790      69.81190486      12.39417902
F        7.30620282      73.00817930      12.25774446
F        8.95875599      75.11842110      12.40721282
F       10.36502930      77.30260997      12.52588106
F       11.75219241      79.52743069      12.58414607
F       13.09654676      81.78844394      12.57836729
F       14.38598854      84.07096114      12.52018459
F       16.17124767      86.04758464      12.63765154
F       18.81773886      89.24787306      12.48444855
F       20.11962289      91.54801881      12.67464644
F       21.34940490      93.76865630      12.83727165
F       22.90588620      95.78767677      12.89173194
F       24.36983079      97.72251383      12.72719293
F       25.69638519      99.82233009      12.63891284
F       27.02082594     101.97985692      12.58633875
F       28.32501037     104.12359800      12.55914277
F       29.68173587     106.23573158      12.57568711
F       31.06371627     108.38630034      12.63178515
F       32.52288342     110.53827193      12.69274843
F       34.19392134     112.64162363      12.61714191
F       35.73282880     114.76236145      12.61172365
F       37.09163115     116.93366265      12.58898514
F       38.42386839     119.11261280      12.57175848
F       39.75899753     121.29791034      12.56517746
F        1.46561550      58.65302402      12.55526454
F        2.80234985      60.84787843      12.54499779
F        4.14121357      63.05113601      12.53415911
F        5.47831127      65.25307506      12.51305450
F        6.78812849      67.39599486      12.48874414
F        8.29431939      69.15898722      12.56149242
F        8.67963372      71.29436166      12.51680369
F       10.18684893      73.01328041      12.40917717
F       11.52993095      75.11213365      12.47290250
F       12.90042385      77.29771660      12.51991771
F       14.25506311      79.51039563      12.54040560
F       15.57450099      81.72605121      12.53224250
F       16.92371316      83.87402455      12.51546032
F       18.37091816      86.31194256      12.44852837
F       21.20262007      89.16087135      12.56532567
F       22.67833985      91.33004487      12.80770764
F       23.75334183      93.61947168      13.09803382
F       25.70111805      95.35878649      12.78689036
F       26.97092912      97.52051256      12.66306737
F       28.27420168      99.68436295      12.62128551
F       29.59232162     101.85228724      12.59618583
F       30.92795295     104.01118504      12.59252474
F       32.29336696     106.16482931      12.61217369
F       33.68318324     108.32964648      12.63472691
F       35.12666145     110.43361539      12.73621709
F       36.90497923     112.57037348      12.66620021
F       38.31941670     114.67325272      12.59042562
F       39.65565735     116.84865911      12.57052210
F       40.98749236     119.03953687      12.56485770
F       42.32542785     121.23330347      12.56724781
F       43.68225883     123.44162606      12.58071141
F        2.68161653      56.36857720      12.57380816
F        4.02436880      58.58569781      12.55753127
F        5.35909192      60.78559163      12.55126666
F        6.69285949      62.98881178      12.54786052
F        8.04083460      65.19373623      12.54056946
F        9.58905047      67.33278008      12.47033194
F       11.28733101      70.72790400      12.45215528
F       12.73004253      72.91928424      12.47977860
F       14.10278938      75.08697780      12.50181454
F       15.45320809      77.26893216      12.51690194
F       16.78306805      79.46217359      12.52882734
F       18.09300985      81.66085466      12.54244752
F       19.39422752      83.90370015      12.56603727
F       20.64576447      86.30170035      12.49809648
F       23.54454551      88.90824719      12.69678376
F       25.20801789      90.37145740      12.86040786
F       25.55425785      92.44215820      13.25372790
F       27.42602500      93.20032929      12.65342910
F       28.28592067      95.28416783      12.59850994
F       29.53119243      97.39023470      12.59455093
F       30.83315968      99.56827111      12.59506873
F       32.16762108     101.75390196      12.59348476
F       33.52475666     103.92600447      12.59328260
F       34.89861986     106.08372453      12.59763905
F       36.32161416     108.19327545      12.63638376
F       37.85919762     110.31119068      12.68998458
F       39.58604240     112.41750392      12.58360313
F       40.89058728     114.58208607      12.55412003
F       42.21219323     116.77248740      12.55645844
F       43.54395132     118.97298974      12.56226406
F       44.88952152     121.19187434      12.57424422
F        2.59372665      51.97217293      12.60037686
F        5.23204062      56.31483367      12.57038776
F        6.58357091      58.52298357      12.56206106
F        7.91358666      60.71503578      12.56764523
F        9.23272324      62.91979283      12.58293133
F       10.59294442      65.17419620      12.59367237
F       12.35823790      68.63472837      12.53351082
F       13.91757933      70.75499913      12.55163311
F       15.32140465      72.89175052      12.52418220
F       16.68035392      75.04443793      12.51255261
F       18.01229600      77.21527368      12.51832803
F       19.32389811      79.39409180      12.54194997
F       20.60701075      81.56638759      12.59162426
F       21.84119760      83.69526497      12.67162544
F       22.79064561      85.80174254      12.83961935
F       24.64128230      86.94713444      13.22832296
F       26.39376706      88.45431180      12.73019880
F       27.71905432      90.68024360      12.40604408
F       29.53280677      92.74294085      12.36659395
F       30.74476548      95.02322589      12.50866426
F       32.04765645      97.26549613      12.55894930
F       33.38409830      99.48429160      12.58073149
F       34.74588655     101.68186337      12.57903501
F       36.12507699     103.86054994      12.56113472
F       37.52974681     106.00913749      12.53420895
F       38.97777320     108.12993186      12.51875490
F       40.60557981     110.14980338      12.42476540
F       42.08770517     112.27543980      12.48903800
F       43.42618791     114.49490965      12.53329950
F       44.76170385     116.70993828      12.55433350
F       46.09781171     118.91929963      12.56581752
F        6.44996736      54.07059450      12.58009106
F        7.80640561      56.26537517      12.56589305
F        9.14802660      58.44586378      12.57089905
F       10.46614106      60.61313232      12.59674501
F       11.74003854      62.72936981      12.66626880
F       13.12630404      64.57960251      12.91411082
F       13.58071034      66.75990408      12.88396569
F       15.12215153      68.66613465      12.68938368
F       16.55580228      70.72934893      12.59045453
F       17.92637650      72.83602279      12.52676765
F       19.25859847      74.98092247      12.50676228
F       20.57576259      77.13613445      12.52146254
F       21.86943449      79.29534524      12.57084943
F       23.14752470      81.44154864      12.67166870
F       24.40793843      83.55929246      12.83894733
F       26.04884831      85.22758692      13.29766188
F       27.89603831      86.45016084      12.99241006
F       28.90693607      88.48601709      12.51783635
F       30.24037513      90.50439806      12.21317705
F       31.86992863      92.67198501      12.30123934
F       33.20143505      94.94919985      12.48102391
F       34.56711212      97.20623039      12.55703600
F       35.93937251      99.42378456      12.57364523
F       37.32769247     101.63170794      12.54693243
F       38.73838858     103.81397278      12.49107138
F       40.17210252     105.94466959      12.40647549
F       41.64147439     107.96109954      12.42052894
F       43.26443424     110.02080760      12.40656716
F       44.60795467     112.21680130      12.48852292
F       45.96077516     114.44135845      12.54341307
F       10.38736507      56.19472286      12.56354557
F       11.73083843      58.35452206      12.57882760
F       13.05773635      60.48010951      12.63423744
F       14.41268490      62.53159244      12.75171196
F       15.80581532      64.47671383      13.03596788
F       16.34609723      66.66587264      13.00753418
F       17.79399775      68.62037937      12.69653540
F       19.18178586      70.65217191      12.55659058
F       20.51391383      72.75649521      12.49296724
F       21.83450804      74.89713428      12.48250963
F       23.14600619      77.02496144      12.52272043
F       24.37687662      79.16805781      12.59634324
F       25.75037819      81.19491561      12.72819425
F       26.95466797      83.07361100      13.01421067
F       29.01251599      83.95544512      12.97588716
F       30.17675246      86.08507373      12.67043374
F       31.36660313      88.28104172      12.40219479
F       32.69391855      90.40549091      12.18141965
F       34.24837606      92.60953047      12.37439846
F       35.66316633      94.91102531      12.55703502
F       37.11125224      97.14300848      12.56826927
F       38.48459271      99.38319705      12.56360220
F       39.89545525     101.61015039      12.49564129
F       41.37164243     103.77448480      12.34530580
F       42.83525820     105.78229029      12.21415110
F       44.30642713     107.75992345      12.20789814
F       45.74254360     109.93964884      12.42634220
F       14.34429986      58.25375628      12.56070309
F       15.69475799      60.35452692      12.62654225
F       17.07693676      62.41047664      12.75980654
F       18.50805474      64.38348164      13.01979064
F       18.97311768      66.59179872      12.94904138
F       20.44719769      68.52552508      12.57374800
F       21.77672278      70.54576150      12.45542685
F       23.01077341      72.65251633      12.43601465
F       24.45512102      74.75312286      12.44243416
F       25.73939379      76.72532280      12.47109424
F       26.68487649      78.74068219      12.73981552
F       28.75895282      79.46805816      12.79209390
F       29.84003935      81.47174477      12.71792799
F       31.30268165      83.63562323      12.67799479
F       32.57193050      85.91059899      12.54255616
F       33.82594204      88.13385016      12.37651935
F       35.14188033      90.28281967      12.29883769
F       36.68339898      92.53739965      12.58823858
F       38.18901535      94.84995066      12.65062079
F       39.61237643      97.06673410      12.60390084
F       40.98161687      99.35643443      12.60688136
F       42.43592309     101.61893383      12.44753639
F       44.02268889     103.62928704      12.07674871
F       45.37075242     105.58439120      12.12401622
F       19.70055711      62.28877072      12.66730620
F       21.21317749      64.18321872      12.89746390
F       21.30400609      66.40175481      12.93966788
F       23.44243459      66.44209072      12.58338230
F       22.99437732      68.52481941      12.41648399
F       24.45785123      70.16190698      12.32353171
F       25.25371448      72.21386068      12.54893087
F       27.29943051      72.93775007      12.57636824
F       28.21692766      74.97420463      12.44906432
F       29.56210763      76.92374252      12.55199373
F       31.07590166      79.08831800      12.63469035
F       32.39958300      81.32000255      12.63558466
F       33.74718867      83.55496580      12.58086801
F       35.03667090      85.78055746      12.50354972
F       36.31342689      87.94969872      12.44841036
F       37.64964211      90.03295561      12.51340071
F       39.12882053      92.25978115      12.58802402
F       40.56635056      94.58174746      12.53351615
F       42.05785695      96.90039708      12.71677994
F       43.53041039      99.25774781      12.68370199
F       44.99235482     101.45919359      12.48736232
F       23.90698533      64.25555281      12.53661680
F       25.59941620      66.22091389      12.41013840
F       26.67554929      68.32039773      12.36345048
F       28.04732094      70.33552208      12.45128314
F       29.57665290      72.49907027      12.51133198
F       30.84246797      74.68298318      12.54011490
F       32.20762379      76.83747476      12.57241532
F       33.58402708      79.03958491      12.59214796
F       34.93123790      81.25510972      12.58264630
F       36.25722800      83.46495569      12.55007593
F       37.56523017      85.65456292      12.52056030
F       38.89138493      87.81501392      12.51688000
F       40.24961723      89.99200481      12.53605055
F       41.62163693      92.19339364      12.54465423
F       43.00985623      94.31697421      12.59827401
F       44.48310728      96.53726899      12.63531863
F       45.93641525      98.77420956      12.54461134
F       28.03406601      66.02632209      12.55325464
F       29.36175384      68.13033753      12.51895942
F       30.72648270      70.25513142      12.52162752
F       32.08802390      72.42617533      12.53637103
F       33.43324867      74.60320456      12.55654700
F       34.78935909      76.78747245      12.57042363
F       36.14072625      78.98416818      12.57281634
F       37.48063622      81.18194621      12.56264406
F       38.80586347      83.37576614      12.54695313
F       40.13050136      85.56257787      12.53617211
F       41.46823261      87.74281156      12.53562615
F       42.82050351      89.92472174      12.54083467
F       44.19407038      92.10228403      12.54122997
F       45.58886604      94.29877080      12.52292224
F       31.98082022      68.03044410      12.56239006
F       33.32307574      70.18521302      12.55236445
F       34.66566737      72.35945260      12.55540338
F       36.01429971      74.54143138      12.56253670
F       37.36066690      76.72879149      12.56743939
F       38.70701793      78.91493889      12.56622819
F       40.04331284      81.10878497      12.55892394
F       41.36716062      83.30044186      12.54963212
F       42.70009922      85.48664456      12.54288056
F       44.04115367      87.67448453      12.53928331
F       45.39380506      89.86749217      12.53054389
F       35.90381666      70.11272408      12.56351109
F       37.24489755      72.29484262      12.56237189
F       38.59003874      74.48144090      12.56714134
F       39.95219356      76.66145731      12.57379071
F       41.28747866      78.83911741      12.57686626
F       42.61233192      81.02125559      12.56561691
F       43.92952603      83.22542655      12.55331371
F       45.26578667      85.41923907      12.54418345
F       39.81439797      72.23046186      12.56786877
F       41.18236747      74.42489933      12.58009610
F       45.16190839      80.94295348      12.57232915
F       45.03055949      76.54668032      12.59911354
F        1.60617138      71.94727855       7.12351832
F       28.21001136      65.70310626       7.24463677
F        2.52950601     101.01173059       7.19905105
F        2.42298196      96.62372710       7.22129835
F        2.32416815      92.15481985       7.23552058
F        3.65379891      94.34679296       7.23924067
F        4.97480542      96.55189211       7.23254767
F        6.29300757      98.73565365       7.22583540
F        7.61965116     100.90767829       7.22435668
F        8.95893891     103.07882079       7.22777706
F       10.31482106     105.26774401       7.23227174
F        2.29055033      87.73116498       7.21729665
F        3.57745795      89.88807667       7.24808870
F        4.88600552      92.07695784       7.25121148
F        6.21307084      94.26894655       7.24853246
F        7.54097551      96.46166471       7.24485084
F        8.87816888      98.64637581       7.24290031
F       10.21057051     100.83188655       7.24063354
F       11.54708911     103.01527074       7.23610373
F       12.87436100     105.21088678       7.22726571
F       14.19965272     107.42963916       7.21933714
F        2.47734889      83.35914403       7.12773095
F        3.63096990      85.46543885       7.25560850
F        4.85966797      87.60603621       7.29461492
F        6.12640714      89.79803495       7.27760431
F        7.44163714      92.00240507       7.26199248
F        8.77269676      94.20169570       7.25528399
F       10.10879581      96.39307310       7.25398108
F       11.44712135      98.57761649       7.25316702
F       12.78266358     100.75870259       7.24689813
F       14.11004116     102.94238990       7.23051954
F       15.41003825     105.14146376       7.20141973
F       16.70509202     107.39021829       7.16392727
F       18.03105284     109.67308536       7.17162243
F        2.41366497      78.89593757       7.06796591
F        3.80449392      80.98940802       7.28032834
F        4.96750502      83.16642022       7.39596987
F        6.17886764      85.31179055       7.42164528
F        7.37446776      87.50086181       7.34975425
F        8.66072313      89.73906528       7.28128459
F        9.99885155      91.94241942       7.26253841
F       11.33810320      94.14037220       7.25888121
F       12.68215362      96.32726702       7.26305232
F       14.02428707      98.50608409       7.26400568
F       15.35703156     100.68291052       7.25030424
F       16.67775790     102.85347575       7.21523340
F       17.87885524     105.06260593       7.13189591
F       19.16352124     107.41458121       7.04645272
F       20.50801462     109.71789286       7.03835811
F       21.82995675     111.98740053       7.13085843
F        2.81203203      74.21453354       6.99045710
F        3.38012673      76.85942093       6.93775686
F        5.00250401      78.80069496       7.39212061
F        6.22344671      81.01367467       7.58498761
F        7.47221499      83.12796787       7.61674499
F        8.69799520      85.25047299       7.49932692
F        9.84941345      87.49224399       7.28476387
F       11.22634250      89.69805766       7.26211400
F       12.56536639      91.89373485       7.25732986
F       13.91414477      94.08598324       7.26762061
F       15.26372105      96.26238754       7.28248066
F       16.59938679      98.43378423       7.28511026
F       17.94054306     100.61812550       7.25759528
F       19.30947161     102.77211737       7.20449234
F       20.18526430     105.22251321       6.88405386
F       21.55334882     107.52874639       6.76219677
F       22.94188067     109.84882601       6.77837398
F       24.24208806     112.22942575       6.90070070
F       25.76509362     114.45255125       7.26154777
F        1.64138755      67.51242178       7.17778971
F        2.92754001      69.65393830       7.11572031
F        4.13872172      71.77469988       6.96089309
F        5.31833709      73.87462282       6.70013089
F        5.30714767      76.02618977       6.54443681
F        6.95993120      77.18663895       7.14473558
F        7.71940001      79.20429619       7.43157071
F        8.92844707      81.20564037       7.49692529
F       10.16706633      83.23707708       7.42376615
F       11.42826934      85.32128111       7.20992600
F       12.52253847      87.52576147       7.21014053
F       13.81993652      89.65538566       7.25351030
F       15.13978957      91.86529579       7.25693453
F       16.50620569      94.03827154       7.29300306
F       17.86099851      96.19229000       7.32319479
F       19.11011087      98.37060981       7.30942059
F       20.57741975     100.75727373       7.32783277
F       22.26304825     104.42063175       6.91419898
F       23.68518661     106.79417952       6.79063046
F       25.04897804     109.04068710       6.84912323
F       26.15462554     111.10143966       6.85849670
F       27.34928582     112.87550005       7.21478226
F       28.33438609     114.80709688       7.38802614
F        1.57381772      63.08023670       7.20597345
F        2.90250274      65.25629997       7.18726788
F        4.22060493      67.41134429       7.14839395
F        5.52942631      69.53644979       7.05979826
F        6.67928364      71.98594105       6.90643277
F        7.83639185      74.56632251       7.01127432
F        9.17680905      76.77766922       7.19965472
F       10.29237040      78.98437070       7.28950037
F       11.56373197      81.08778340       7.31714070
F       12.86795097      83.17598620       7.24112955
F       14.18774182      85.33046886       7.14754376
F       15.25295967      87.47265619       7.26464837
F       16.35697688      89.66855483       7.19989049
F       17.74162988      91.84441307       7.27524223
F       19.12738598      94.00063282       7.35712443
F       20.53913912      96.13093470       7.40398571
F       21.40834932      98.67859214       7.23667229
F       23.17403236     102.37624604       7.26465385
F       24.70071967     104.68046625       7.10878096
F       26.11262684     106.94924872       7.10162921
F       27.47317669     109.22902314       7.22441658
F       28.85524703     111.36865070       7.38168056
F       30.68178187     114.57124119       7.43471403
F       31.98028879     116.93041425       7.27920506
F        1.46924126      58.63808978       7.21742111
F        2.80737959      60.82527891       7.21562670
F        4.14738021      63.00885838       7.20523608
F        5.48599033      65.18521976       7.18598128
F        6.80956765      67.37878124       7.16282472
F        7.99510622      69.71221808       7.15334149
F        9.09891339      72.16516194       7.07097175
F       10.34119417      74.45934055       7.13509729
F       11.62154562      76.68029095       7.20361370
F       12.88277406      78.86144975       7.23921530
F       14.20061367      81.00958104       7.24112857
F       15.52852994      83.18059102       7.22989527
F       16.82213417      85.32255930       7.19426368
F       18.00989487      87.46668325       7.08138456
F       19.02139955      89.70063926       7.16284584
F       20.34502211      91.83693547       7.35820157
F       21.80542081      94.05352394       7.52888048
F       23.41089671      97.84307130       7.28136100
F       24.35067147     100.34062667       7.34600939
F       25.80118171     102.53492848       7.24653153
F       27.21172267     104.76455905       7.20771008
F       28.57234512     107.01188025       7.24157400
F       29.89156319     109.24899547       7.34273770
F       31.02455687     111.70910103       7.47463282
F       33.11880733     114.62946916       7.34688135
F       34.50559706     116.92319640       7.27653694
F       35.85636185     119.14189386       7.24579998
F        2.68633109      56.35767372       7.21117289
F        4.03392979      58.57235126       7.22131056
F        5.37910568      60.76470011       7.22206409
F        6.72849795      62.95051380       7.21908997
F        8.06637801      65.13012527       7.20816823
F        9.30753462      67.33742754       7.14448650
F       10.38735384      69.88318241       7.07014088
F       11.58252233      72.13944172       7.15925181
F       12.86594418      74.37930804       7.17687912
F       14.15750120      76.59146171       7.20309587
F       15.47167461      78.77944905       7.21743308
F       16.80791478      80.95833630       7.22451932
F       18.15542680      83.11796695       7.23456232
F       19.48838781      85.22961580       7.19128313
F       20.78904507      87.42378492       7.11446248
F       21.68897663      89.70693883       7.25355310
F       22.76700446      91.91257812       7.51312314
F       24.10471622      95.75930120       7.54042024
F       25.67267604      98.17583799       7.38898750
F       26.97423281     100.36275795       7.31838604
F       28.35775484     102.55405494       7.27398241
F       29.72498584     104.77208635       7.27139694
F       31.06276475     106.98839446       7.30519731
F       32.33078647     109.14181971       7.36214988
F       33.17989814     111.26366155       7.24923364
F       34.89831337     112.58881023       7.22179624
F       35.76601337     114.73945629       7.28683248
F       37.06801800     116.88819591       7.26179340
F       38.41118044     119.08924393       7.24276102
F       39.75697857     121.29047772       7.23579248
F        2.59710340      51.96596968       7.19751492
F        5.23923239      56.30884241       7.22051533
F        6.60103582      58.52070490       7.23054864
F        7.95578252      60.71506928       7.23905166
F        9.31388556      62.89860042       7.25499733
F       10.67213122      65.04822286       7.25589353
F       11.76752848      67.50190580       7.17385297
F       12.90700478      69.83070249       7.20454670
F       14.11345206      72.08061984       7.21182588
F       15.40217514      74.30953367       7.20197877
F       16.71747347      76.52580019       7.20467982
F       18.05650902      78.73025617       7.21912954
F       19.41584495      80.92580695       7.25123208
F       20.79157585      83.09404008       7.30252320
F       22.17797230      85.22287987       7.35062807
F       23.43149997      87.45660514       7.31080212
F       24.29807957      89.70747938       7.40243558
F       24.92388744      91.91967855       7.33052702
F       25.44735302      94.01655255       7.45452191
F       26.77404006      96.00171129       7.39095185
F       28.16444773      98.16452120       7.32526214
F       29.53992262     100.33898714       7.29635007
F       30.90335215     102.52684192       7.28561197
F       32.24953449     104.72665380       7.29140228
F       33.57742334     106.93550910       7.31565490
F       34.87899977     109.21459894       7.35573034
F       37.10666316     112.25393805       7.34910014
F       38.28728015     114.61707480       7.25804953
F       39.62660879     116.83624313       7.24161740
F       40.97577780     119.03746628       7.23562768
F       42.32356055     121.23326047       7.23102301
F       43.68324508     123.44111534       7.21806823
F        6.45270826      54.06555931       7.21780066
F        7.81140811      56.26982649       7.23205672
F        9.16721850      58.47211527       7.24216158
F       10.53142037      60.68433970       7.27074410
F       11.90627891      62.90875321       7.34894687
F       13.19400530      65.17705913       7.50162667
F       14.19978337      67.45779723       7.42380984
F       15.36008355      69.74796928       7.31606441
F       16.62180829      72.01226891       7.23902183
F       17.94033076      74.25936599       7.20563983
F       19.27839200      76.48652502       7.20488195
F       20.63492903      78.70592977       7.23702980
F       22.01437209      80.92599817       7.30709311
F       23.41059409      83.15896688       7.45285866
F       24.72769411      85.46426020       7.72141572
F       25.86070277      87.66491203       7.50909829
F       26.97507692      89.60598680       7.06208284
F       27.05159447      91.82490399       6.97695042
F       27.99886528      93.92226046       7.29069682
F       29.37178230      95.99714363       7.27228358
F       30.74393843      98.12914669       7.27824690
F       32.10546916     100.28872303       7.28126264
F       33.44953124     102.46709566       7.27983653
F       34.77457019     104.66297720       7.27670199
F       36.07638433     106.88193901       7.27544407
F       37.23247899     109.22264140       7.32707024
F       39.47417142     112.32543475       7.24617070
F       40.83776173     114.59409501       7.22574909
F       42.19718793     116.78950335       7.22774074
F       43.54366510     118.98086515       7.23072496
F       44.89385011     121.19390486       7.22437361
F       10.37395668      56.21935433       7.23434609
F       11.72342391      58.44262856       7.25126135
F       13.08102238      60.69103761       7.31244296
F       14.41306610      62.96682307       7.45689048
F       15.64991438      65.17391438       7.65822543
F       16.57250355      67.40039507       7.53288132
F       17.80997246      69.69356529       7.31686742
F       19.13213942      72.00520174       7.22247747
F       20.49024088      74.23706296       7.18599085
F       21.83631156      76.46910561       7.20052547
F       23.20190115      78.71934056       7.26395554
F       24.58208448      80.97351308       7.39168897
F       25.89132776      83.29830281       7.58401333
F       27.10144245      85.53515718       7.67414819
F       28.37714843      87.65299353       7.31791998
F       29.67817792      89.68429063       6.88500774
F       29.37226219      91.92054129       6.92956613
F       30.64607462      93.90063956       7.14026047
F       31.99327572      95.95447046       7.21401854
F       33.33758002      98.06574919       7.25775898
F       34.66933539     100.21506582       7.26933722
F       35.99137334     102.38593389       7.25621456
F       37.29021221     104.57740005       7.22731507
F       38.54440272     106.75236541       7.20182123
F       39.43830319     108.92272373       7.05834893
F       41.17504119     110.26979818       7.00607053
F       42.11380592     112.42181475       7.16347406
F       43.43434105     114.55471300       7.20601642
F       44.77562981     116.73203386       7.22534801
F       46.11052513     118.92490873       7.23193613
F       14.25114035      58.42489243       7.23718853
F       15.58983096      60.70041894       7.31502271
F       16.89464619      62.96752073       7.48213675
F       18.10699172      65.12466811       7.66921310
F       18.90153326      67.33598841       7.50224401
F       20.27038457      69.83073364       7.24625971
F       21.68845917      71.99848143       7.16637940
F       23.06278061      74.22918926       7.16343761
F       24.38044576      76.51909609       7.16178073
F       25.76906609      78.78425102       7.27940956
F       27.07318591      81.11300173       7.37763549
F       28.35082125      83.46036044       7.59026626
F       29.64609448      85.57525516       7.41694512
F       31.01636760      87.66978451       7.14046942
F       32.39453801      89.66477255       6.81362646
F       31.98587885      91.88101175       6.83074062
F       33.31255381      93.82306798       7.11300856
F       34.62192787      95.85619837       7.21979729
F       35.91461343      97.97117214       7.26592205
F       37.22695811     100.12172763       7.25571701
F       38.51227299     102.28438576       7.20654024
F       39.78647193     104.48579735       7.12649577
F       40.99222154     106.80567708       7.06997020
F       43.44467065     110.09010339       7.08023642
F       44.70660465     112.32210069       7.16257971
F       46.02634037     114.48353200       7.21551805
F       18.07724978      60.70390657       7.25282598
F       19.37078015      62.96261045       7.41672641
F       20.59624962      65.17593023       7.52254488
F       21.01738470      67.70026703       7.23269093
F       22.85051211      69.76824852       7.07656743
F       24.28785568      72.05582478       7.10541609
F       25.61334587      74.29941316       7.06194740
F       26.99380613      76.66078377       7.10817988
F       28.34905965      79.05493266       7.37339904
F       29.68400520      81.35798872       7.39159725
F       30.96101435      83.48327937       7.37182218
F       32.31959641      85.58385726       7.23829542
F       33.70747783      87.67231014       7.08644269
F       35.09687714      89.64582729       6.89086818
F       34.75129918      91.84524734       6.91173866
F       36.07164656      93.65804202       7.22930441
F       37.23883237      95.70013524       7.27797996
F       38.45096613      97.93834034       7.28270421
F       39.81693660      99.99708911       7.23212722
F       40.97014980     102.16531583       7.12653903
F       42.24923475     104.39479754       6.95921712
F       43.22375466     106.79730221       6.78395375
F       45.08140501     108.04690419       6.82227724
F       46.05595351     110.14390205       7.12016959
F       21.81125929      62.90229079       7.29153492
F       23.01933218      64.78736201       7.08508326
F       22.85334499      66.85300788       6.66089754
F       24.70472945      67.92732687       6.80735010
F       25.65361843      70.04866924       6.97518017
F       26.96142681      72.31749935       7.18102257
F       28.37320707      74.63305284       7.13196425
F       29.70015764      76.96772005       7.21456130
F       30.93880081      79.14585272       7.30912641
F       32.25759813      81.29431024       7.30964146
F       33.59990967      83.43223871       7.25927227
F       34.98126844      85.57200439       7.18290191
F       36.40603204      87.73935988       7.13083408
F       37.67306722      90.11239060       7.17452236
F       38.78555392      92.21410792       7.26705353
F       40.16698316      93.97155955       7.13595630
F       39.86797271      96.12652906       7.16051298
F       41.28402095      97.83041953       7.34963612
F       42.51025376      99.74650506       7.30006799
F       43.25465190     101.81926753       6.95854510
F       45.22117210     102.75177869       6.56984147
F       44.54106963     104.86732739       6.50050254
F       46.57054010     105.75504781       6.80575433
F       25.63478764      65.60210011       7.12917074
F       27.09842412      67.95696136       7.06016468
F       28.34108543      70.27158173       7.11738813
F       29.57787641      72.45876683       7.18644081
F       30.90709324      74.67947842       7.20773881
F       32.22621287      76.88835888       7.24404437
F       33.52937558      79.06520000       7.26486488
F       34.86022828      81.22293755       7.25475128
F       36.21554460      83.38446413       7.22289502
F       37.58487535      85.56695697       7.19466296
F       38.92858813      87.79897602       7.18845637
F       40.23244687      90.00305012       7.20321334
F       41.59214383      92.13453590       7.21891275
F       42.82076568      94.47490609       7.26172022
F       43.99230096      96.61199594       7.31371593
F       45.21379671      98.66216077       7.23283878
F       46.27287741     100.76615265       7.10138067
F       29.53397268      67.96439992       7.19469424
F       30.83601877      70.20774931       7.19488894
F       32.13902673      72.42132646       7.20917929
F       33.45944432      74.62086125       7.22764231
F       34.78321342      76.80931122       7.24170593
F       36.11460995      78.98446640       7.24383085
F       37.45534292      81.15520540       7.23341674
F       38.80133870      83.33667299       7.21830169
F       40.14466039      85.53426700       7.20752345
F       41.47582218      87.73641063       7.20655715
F       42.80135917      89.92842929       7.21326674
F       44.11210027      92.12784805       7.21353743
F       45.38341509      94.30489203       7.19540144
F       32.03555155      67.92990130       7.23550130
F       33.36363064      70.15223602       7.22395455
F       34.69218090      72.35742341       7.22640592
F       36.02239754      74.55014585       7.23330667
F       37.35420806      76.73330678       7.23590029
F       38.69540596      78.90730625       7.23234680
F       40.03630051      81.09053616       7.22510062
F       41.36895497      83.27963713       7.21812831
F       42.70408296      85.47213894       7.21360387
F       44.03363495      87.66605477       7.21016591
F       45.35792683      89.85042735       7.20194022
F       35.91383635      70.09431761       7.23438021
F       37.25223570      72.29250363       7.23298692
F       38.59108841      74.48298578       7.23091654
F       39.94813852      76.65892414       7.22392010
F       41.28306135      78.83004282       7.21459257
F       42.61158602      81.00735699       7.21576450
F       43.93123094      83.21054306       7.21708386
F       45.26554280      85.40295673       7.21478039
F       39.81516112      72.22905985       7.23002248
F       41.18226098      74.42379376       7.21745291
F       45.16379646      80.93082924       7.20969456
F       45.03241831      76.54091148       7.19624483
C       45.64703150      56.46902896      11.01235433
C       45.79068781      57.96301727      10.57892795
C       45.33826152      52.08107324      10.91799529
C       45.52403055      53.53732226      10.40527377
C       60.68591500      32.96323820      10.67447564
C       62.02656839      33.60599782      11.17435412
C       64.63506122      34.99801049      10.64931167
C       66.00223022      35.55971230      11.14120613
C       46.26906323      74.28555719      11.21558645
C       46.15748334      69.87818916      11.20187685
C       46.19578602      71.35868363      10.70930873
C       47.48409769      72.06179820      11.16662035
C       47.52218257      73.52541470      10.71602406
C       48.81331483      74.23216094      11.16823809
C       48.85336136      75.70330237      10.71489108
C       50.13873470      76.40463153      11.16443183
C       46.03890356      65.40309804      11.18570796
C       46.08172514      66.89300191      10.68352787
C       47.37794485      67.60687245      11.19351158
C       47.41316510      69.10270943      10.69580491
C       48.70686537      69.80751267      11.20078037
C       48.73837520      71.29113990      10.70560079
C       50.03012318      71.99311291      11.20630793
C       50.06423323      73.46722871      10.70869615
C       51.36107030      74.17010949      11.20482509
C       51.39660437      75.63929693      10.70291779
C       52.70400129      76.34367824      11.19604104
C       52.74060573      77.81543814      10.69100073
C       54.05889261      78.52614477      11.18656404
C       45.89281911      60.93344190      11.16114697
C       45.95787896      62.42625376      10.67002708
C       47.25291947      63.14421713      11.19668446
C       47.30283136      64.62929687      10.68920562
C       48.60085306      65.34378313      11.20088633
C       48.64130955      66.82865848      10.69268236
C       49.93887042      67.53716177      11.20079438
C       49.97041519      69.02521275      10.69643709
C       51.26975983      69.72858304      11.20089154
C       51.29682213      71.21440793      10.69918112
C       52.60287035      71.91555170      11.20052149
C       52.63129735      73.39737931      10.69741833
C       53.94221627      74.09992967      11.19665721
C       53.97622322      75.57617760      10.68971122
C       55.29031765      76.28332682      11.18835287
C       55.32892896      77.75859651      10.67894592
C       56.64273589      78.46737314      11.17695402
C       56.68050947      79.94440242      10.67204507
C       57.99763898      80.64536407      11.16816023
C       47.06575178      58.67595605      11.18642701
C       47.16538665      60.16702748      10.69188805
C       48.45467695      60.89365066      11.23864721
C       48.52200888      62.37148366      10.71477051
C       49.82181522      63.09076228      11.22533963
C       49.86764527      64.56715858      10.70617323
C       51.16920449      65.27601477      11.21165058
C       51.20593498      66.75854146      10.70007074
C       52.50502338      67.46572246      11.20534109
C       52.53849741      68.94982584      10.69775545
C       53.83837391      69.65595157      11.20407087
C       53.87276256      71.13838907      10.69678873
C       55.17536833      71.84548167      11.20323935
C       55.21249342      73.32505478      10.69368608
C       56.51925628      74.03461667      11.19688025
C       56.55909169      75.51139477      10.68362825
C       57.87092112      76.22276428      11.18005996
C       57.91069211      77.69773796      10.66498029
C       59.23172436      78.40540820      11.14869474
C       59.26508242      79.87941738      10.63752629
C       60.59666728      80.57098929      11.10818804
C       60.61698291      82.05286594      10.62847874
C       61.95359728      82.71798915      11.10797295
C       46.76945432      54.21366112      11.12195268
C       46.95612620      55.69877192      10.64260517
C       48.19683451      56.40940188      11.29570584
C       48.34731272      57.90203262      10.77258680
C       49.60970882      58.63314598      11.34472593
C       49.73057384      60.11304587      10.79122547
C       51.02992915      60.84700288      11.29447421
C       51.09087955      62.31005834      10.73895715
C       52.39739386      63.01430836      11.23073828
C       52.43670797      64.49476280      10.71245198
C       53.73673546      65.20155144      11.21249945
C       53.77156585      66.68626574      10.70340435
C       55.06977813      67.39360625      11.20879273
C       55.10551903      68.87829979      10.70347053
C       56.40384748      69.58630923      11.21298804
C       56.44338045      71.06937043      10.70501777
C       57.74403594      71.78015200      11.21378801
C       57.78686831      73.25956224      10.69889285
C       59.09258205      73.97209293      11.20006615
C       59.13644094      75.44777427      10.67695150
C       60.45032928      76.15917898      11.16442997
C       60.49402404      77.62993699      10.62733565
C       61.82856560      78.33198272      11.07183830
C       61.85309920      79.79848403      10.54223787
C       63.20165780      80.45388424      10.96592948
C       63.20667222      81.95523579      10.50190091
C       64.54963440      82.58977509      10.94273301
C       64.55646377      84.11125451      10.54120676
C       65.90327611      84.72109004      11.01078795
C       46.14068451      49.69669249      11.02314079
C       46.62514464      51.20414565      10.58022290
C       47.77859644      51.85916795      11.41829397
C       48.07455548      53.38060014      10.84974676
C       49.23968914      54.06462240      11.58052832
C       49.48460277      55.59871861      10.98444068
C       50.66309031      56.30388954      11.65541531
C       50.88630311      57.82294026      10.98914568
C       52.08788835      58.55625080      11.58161868
C       52.28975276      60.03077444      10.84846599
C       53.60192352      60.71833410      11.24543154
C       53.65639689      62.21932715      10.72542126
C       54.95639204      62.92229506      11.21496274
C       54.99937047      64.41743430      10.70593978
C       56.29710511      65.12663107      11.20611021
C       56.33379696      66.61516622      10.70472523
C       57.62955111      67.32054937      11.21717561
C       57.66973312      68.80878377      10.71546486
C       58.96409999      69.51776231      11.23191237
C       59.01032980      71.00194624      10.72197576
C       60.30929821      71.71265130      11.23340437
C       60.35769832      73.19093908      10.70930456
C       61.66167916      73.89449671      11.21109839
C       61.71210841      75.36880127      10.67672269
C       63.01966697      76.06607863      11.16838723
C       63.07374153      77.52046222      10.53517604
C       64.42247294      78.11539804      10.92128254
C       64.43716788      79.63932579      10.34308490
C       65.75915985      80.22536633      10.76327183
C       65.77798458      81.79859103      10.27589669
C       67.09334444      82.35883290      10.75100923
C       67.14335975      83.95596169      10.34054175
C       68.47039276      84.47293960      10.88426230
C       68.55580008      86.04019398      10.57278026
C       69.90093373      86.44533073      11.43809039
C       70.35921545      87.67316072      10.74963730
C       71.63384290      88.38083760      11.28613465
C       45.67853966      45.24845556      11.06098231
C       45.72487690      46.71843712      10.52393945
C       47.11992162      47.35961329      10.91930136
C       47.20605323      48.82576812      10.45436096
C       48.65181299      49.36349604      11.19312224
C       49.01675432      50.90407333      11.48782284
C       50.23143157      51.49925932      10.78812133
C       50.45108932      53.02406217      11.55012748
C       51.64199628      53.72780684      10.95223002
C       51.85504944      55.24946477      11.64296055
C       53.01994973      55.95106646      10.96943881
C       53.28198948      57.53703744      11.56409973
C       54.41980553      58.17096900      10.75167705
C       54.78778198      59.90849607      10.63471364
C       56.07627791      60.56826558      11.15808548
C       56.20128708      62.12482119      10.69971571
C       57.50260837      62.85024993      11.20341458
C       57.55468081      64.34527675      10.69319493
C       58.85151781      65.04337918      11.20558887
C       58.89319360      66.54123620      10.71553970
C       60.18007519      67.24407809      11.24151702
C       60.22922767      68.73708715      10.74311577
C       61.51712499      69.44252600      11.27145237
C       61.57465975      70.92439008      10.75212133
C       62.87570825      71.61828412      11.25664386
C       62.92480945      73.08775661      10.73487203
C       64.21596052      73.72636259      11.27768584
C       64.26849767      75.20279279      10.75216455
C       65.62186395      75.68962664      11.25312992
C       65.68980939      77.04703492      10.55260474
C       66.95823339      77.73741240      10.99966778
C       66.98404563      79.15224260      10.34155648
C       68.25405129      79.83510468      10.89403820
C       68.31230726      81.30066329      10.31711005
C       69.56870386      81.95612896      10.94434343
C       69.68746056      83.48844598      10.47641075
C       71.01218105      83.96066614      11.32166258
C       71.17739932      85.49999007      11.78226459
C       72.70284908      86.20259693      11.67412747
C       72.91942160      87.54847178      10.94125148
C       74.27275212      88.26585649      11.36855837
C       74.34470831      89.66979545      10.74316383
C       75.66051756      90.36777443      11.22529933
C       45.46329373      40.80786246      11.12622450
C       45.50978088      42.28640114      10.60547381
C       46.84519365      43.00580243      11.06200356
C       46.90296090      44.47074391      10.50821635
C       48.30108777      45.17635759      10.89761221
C       48.33154689      46.59754779      10.27679634
C       49.93435592      47.12585566      10.27597622
C       50.05659432      48.53195241      11.00215803
C       51.39860405      49.23478484      10.51731422
C       51.50503664      50.68073837      11.14640760
C       52.80518700      51.41172435      10.68848236
C       52.90848299      52.88904331      11.29556854
C       54.17342384      53.62146080      10.77025718
C       54.28646697      55.13114819      11.31940454
C       55.53408914      55.85077367      10.74349072
C       55.67320340      57.41257571      11.20258362
C       56.91445490      58.07270982      10.58541352
C       57.30107025      59.81614594      10.61391976
C       58.48905898      60.50475935      11.33872280
C       58.74577793      62.04905742      10.70768286
C       60.05296796      62.73097323      11.15934958
C       60.10669032      64.25841305      10.69242283
C       61.38929391      64.94873613      11.22300659
C       61.44281438      66.46156850      10.75048710
C       62.71646226      67.15438259      11.30443656
C       62.78540353      68.65043579      10.80792435
C       64.06195757      69.33644946      11.36584841
C       64.13992508      70.79904098      10.77584421
C       65.46140452      71.35732272      11.26383236
C       65.50213399      72.86922604      10.80424025
C       66.85326158      73.30788849      11.35442809
C       66.91301132      74.70575233      10.78970992
C       68.20731741      75.38918841      11.21706643
C       68.22974706      76.81758734      10.60794908
C       69.51493363      77.51166043      11.10588034
C       69.55442580      78.96317638      10.53932948
C       70.83254274      79.64846289      11.10642195
C       70.89823099      81.11545489      10.59351496
C       72.22102759      81.75686907      11.18315116
C       72.29134180      83.25625418      10.75862060
C       73.63522997      83.89635996      11.34179736
C       73.74373237      85.37540862      10.97017413
C       75.25607228      86.03189902      11.45465109
C       75.51757747      87.43859242      10.89745540
C       76.87737988      88.11357961      11.30707447
C       76.92862596      89.56048772      10.74608693
C       78.24401265      90.26395924      11.22465172
C       78.28322879      91.73089499      10.69599834
C       79.58869528      92.43643856      11.19516064
C       45.32384423      36.35510247      11.15590817
C       45.36362097      37.83682788      10.64300853
C       46.67016530      38.55230264      11.13667654
C       46.71345745      40.03115174      10.61422258
C       48.02761947      40.75088751      11.09637958
C       48.08223494      42.22207154      10.55559630
C       49.42567479      42.94605178      11.01916884
C       49.50707579      44.35086463      10.36890394
C       51.18894811      44.87679359      10.41098356
C       51.16811700      46.32234921      10.89475126
C       52.60880765      46.98507196      10.49526057
C       52.66451510      48.44111101      11.03396404
C       54.00652153      49.15616115      10.59317799
C       54.06303335      50.62022536      11.15193243
C       55.36373147      51.35386383      10.66336918
C       55.43376603      52.83134944      11.20990922
C       56.71380934      53.56138318      10.68829654
C       56.78719742      55.06173075      11.20212007
C       58.05706660      55.77570784      10.66426535
C       58.13462957      57.30250181      11.14258056
C       59.41364685      58.01014823      10.65842935
C       59.68027020      59.53380559      11.31824581
C       60.84953745      60.21766836      10.57193773
C       61.24702810      61.96046452      10.54458059
C       62.54043737      62.60630766      11.11208934
C       62.63801617      64.16185622      10.71301948
C       63.90998765      64.83729026      11.29509723
C       63.98192439      66.35713564      10.84563548
C       65.23112888      67.00290746      11.46806613
C       65.32708115      68.48871207      10.97491948
C       66.67700311      68.96882611      11.52449587
C       66.77822547      70.32541929      10.87865468
C       68.08934662      70.94991303      11.34824495
C       68.09577744      72.37393328      10.79659869
C       69.42258717      73.05473840      11.26084595
C       69.46192883      74.51863450      10.72960806
C       70.76476818      75.21002877      11.20865651
C       70.79505092      76.67716878      10.66683276
C       72.09072710      77.37178736      11.18168109
C       72.13285838      78.84234905      10.66521230
C       73.44267940      79.52154113      11.19916406
C       73.50005961      80.99471700      10.70750350
C       74.82097319      81.67607349      11.25382895
C       74.89107409      83.15927140      10.80205775
C       76.26894744      83.81597134      11.31350185
C       76.38953064      85.26154058      10.83137237
C       77.93030617      85.89140672      11.23584524
C       78.11283478      87.31254738      10.73935857
C       79.44866150      88.00281402      11.23271941
C       79.50424364      89.47274687      10.72057182
C       80.81674016      90.17645958      11.21003725
C       80.85492571      91.65409793      10.69473566
C       82.15999503      92.36212871      11.19257072
C       82.19735717      93.84291867      10.68263204
C       83.50170032      94.55280668      11.18587174
C       45.20841336      31.89298133      11.17512616
C       45.24606299      33.37939964      10.66278112
C       46.54564520      34.09442118      11.16571358
C       46.58523318      35.57798756      10.65383573
C       47.88637408      36.29368691      11.15501090
C       47.92885947      37.77371541      10.63621714
C       49.23237368      38.49115492      11.13441365
C       49.28208953      39.96520080      10.60281844
C       50.59692973      40.67283211      11.11299224
C       50.67275271      42.14264085      10.59581959
C       52.12503904      42.70269845      11.23517110
C       52.36028988      44.22186222      11.19930572
C       53.82612708      44.74305975      10.56137174
C       53.88528791      46.22498887      11.03667481
C       55.22702613      46.92214664      10.56778426
C       55.26621258      48.38706502      11.09711827
C       56.58288618      49.10705000      10.61803021
C       56.62755448      50.57925199      11.14308710
C       57.92705807      51.30333731      10.64527899
C       57.97631743      52.78447889      11.16336991
C       59.26612598      53.50417006      10.65267574
C       59.31434238      54.99609862      11.15536415
C       60.60536101      55.70801848      10.64470933
C       60.66098574      57.20691530      11.14258771
C       61.96138972      57.93451395      10.64273876
C       62.09002015      59.49213116      11.08113327
C       63.36425399      60.16654241      10.49735085
C       63.75983781      61.88215568      10.53559352
C       65.01706185      62.49976393      11.19518775
C       65.16501057      64.05086598      10.81231834
C       66.44329757      64.65372142      11.42431828
C       66.52913732      66.18012449      11.05833133
C       67.80766509      66.66987412      11.78240386
C       68.00453236      67.97344313      11.05359150
C       69.33967356      68.62478817      11.40739099
C       69.34730828      70.07381698      10.84776128
C       70.66866180      70.75799741      11.28543015
C       70.68961460      72.22990314      10.76894042
C       71.99783399      72.92523426      11.24401946
C       72.03034852      74.40152602      10.72447420
C       73.33292714      75.10007077      11.21838968
C       73.36934962      76.57702280      10.70574464
C       74.67658723      77.27093460      11.21474617
C       74.72098878      78.74677503      10.71608749
C       76.03713441      79.43740058      11.23474432
C       76.08914898      80.91672015      10.75314133
C       77.42739729      81.60351827      11.25633517
C       77.50516799      83.09299319      10.78521877
C       78.92040642      83.70952788      11.36301280
C       79.22509410      85.09697191      10.80436775
C       80.60328683      85.79223044      11.28982712
C       80.70289242      87.22332057      10.73118913
C       82.03072865      87.91945461      11.21123191
C       82.07713234      89.39415387      10.69837035
C       83.38526487      90.10073710      11.19143684
C       83.42279579      91.58451708      10.68489982
C       84.72650686      92.29509366      11.18562155
C       84.76656256      93.78048812      10.68080298
C       86.07126576      94.49308091      11.18705634
C       86.11941234      95.97959119      10.68789698
C       87.42235671      96.69324572      11.19854155
C       45.09749564      27.44971622      11.16099625
C       45.13428344      28.91456820      10.69662383
C       46.42727044      29.62411978      11.19168530
C       46.46815153      31.10890215      10.67800681
C       47.76708256      31.83080912      11.17738640
C       47.80713203      33.31696982      10.66606738
C       49.10675974      34.03295722      11.17207721
C       49.14894266      35.51698467      10.65989539
C       50.44835215      36.23283064      11.16884926
C       50.49772224      37.71495745      10.64953843
C       51.80863344      38.42998193      11.16084530
C       51.88061672      39.90228160      10.63073033
C       53.28364770      40.57868449      11.09660185
C       53.32786313      42.01023986      10.53588797
C       55.02538179      42.54794353      10.52790241
C       55.07152162      43.99346851      11.07509056
C       56.44252871      44.68608563      10.61586154
C       56.48172498      46.16342199      11.10308881
C       57.80905996      46.86805750      10.62077682
C       57.84597431      48.34321277      11.12452179
C       59.15471613      49.05647396      10.62951450
C       59.19208832      50.53352563      11.13940785
C       60.49194452      51.24992340      10.64038981
C       60.52787822      52.73084986      11.15147395
C       61.82570917      53.44680065      10.65693773
C       61.85738537      54.93425419      11.16609176
C       63.15934051      55.65152821      10.68923067
C       63.19439760      57.15986949      11.18972981
C       64.50414305      57.87407328      10.72289057
C       64.56174000      59.44115842      11.14377975
C       65.92352765      60.09816278      10.68036453
C       66.22939950      61.73378175      10.66808247
C       67.46951566      62.16324946      11.34559746
C       67.68783828      63.88646998      10.89547611
C       68.98222195      64.11739680      11.58142437
C       69.17750971      65.69327898      11.90040017
C       70.59355254      66.31982659      11.41557203
C       70.56060698      67.77021693      10.82701395
C       71.90052788      68.46496164      11.23158407
C       71.91750428      69.94758813      10.74027061
C       73.22703608      70.63727936      11.21841143
C       73.25552947      72.12697358      10.72650890
C       74.56008626      72.82558489      11.21736691
C       74.59746372      74.31120551      10.71767080
C       75.90443539      75.01131827      11.21552449
C       75.94555914      76.49174401      10.71571919
C       77.25946021      77.18900119      11.21541832
C       77.30245473      78.66707063      10.72360632
C       78.62716988      79.35543547      11.21964208
C       78.68091405      80.83305959      10.74472889
C       80.04446206      81.48618630      11.25871608
C       80.10901265      82.95290163      10.82817838
C       81.59047090      83.59683053      11.31723350
C       81.86303795      85.00447024      10.79388500
C       83.23297048      85.66894040      11.20914292
C       83.28653412      87.13629719      10.69291346
C       84.60392164      87.83584877      11.17527571
C       84.64442734      89.32278618      10.67619066
C       85.94799911      90.03159954      11.17736528
C       85.98746870      91.52101629      10.67685537
C       87.28903049      92.23384640      11.18299320
C       87.33411220      93.72498199      10.68342707
C       88.63325758      94.44308493      11.19263791
C       88.67796094      95.92766617      10.69947967
C       89.96826064      96.63470701      11.16391141
C       90.00471875      98.09868579      10.71403320
C       45.02403976      24.51036911      10.71946169
C       46.32327727      25.21853340      11.21406538
C       46.35488509      26.68304147      10.71113802
C       47.64080831      27.38306730      11.16037794
C       47.68104513      28.85367662      10.69471960
C       48.98052324      29.56977017      11.18877531
C       49.02637896      31.05373578      10.67862658
C       50.32881740      31.77217091      11.18283497
C       50.37001446      33.25715179      10.67531995
C       51.66874603      33.96873041      11.18868101
C       51.71270674      35.45526988      10.68137650
C       53.00871199      36.16472832      11.20421201
C       53.07055652      37.65036252      10.68876527
C       54.38941322      38.35890916      11.21649436
C       54.50540489      39.78692646      10.59471329
C       56.18550298      40.33978036      10.72925824
C       56.20923750      41.80872231      11.16923614
C       57.63796185      42.46732025      10.72600821
C       57.68882378      43.94886451      11.17609073
C       59.03360043      44.63434278      10.67655801
C       59.07213394      46.11562574      11.14731232
C       60.38752502      46.81417380      10.64073387
C       60.42248192      48.29252332      11.13505022
C       61.72576517      49.00094663      10.63162967
C       61.75771880      50.47747358      11.14074942
C       63.05781647      51.18986370      10.64682766
C       63.08451300      52.66611670      11.16475250
C       64.38619395      53.37967064      10.68791355
C       64.40399617      54.85584320      11.21645327
C       65.71192411      55.56775205      10.76667604
C       65.72071502      57.03900663      11.30736049
C       67.05104508      57.74524085      10.93474628
C       67.02852218      59.17952704      11.57107839
C       68.45097485      59.82902294      11.91743406
C       68.59312546      61.03442893      11.00311328
C       69.98819672      61.69814878      11.35647792
C       70.01374322      63.16225661      10.74508245
C       71.42238805      63.87460121      11.01438671
C       71.66393225      65.40504722      10.57640778
C       73.05718801      66.07590723      11.01544162
C       73.11556787      67.63717290      10.64097563
C       74.42572326      68.31790067      11.13398926
C       74.46883373      69.84050257      10.68030624
C       75.76998528      70.54036871      11.18151821
C       75.81436584      72.04094762      10.70140559
C       77.11853336      72.74560026      11.20284380
C       77.16494884      74.23310732      10.70716526
C       78.47708810      74.93747189      11.20108825
C       78.52206987      76.41754354      10.70032916
C       79.84579486      77.11825121      11.18335244
C       79.88745358      78.59364135      10.68737401
C       81.23379765      79.27714662      11.15657373
C       81.27958006      80.74931269      10.68181784
C       82.67393973      81.40249700      11.14042614
C       82.74176975      82.84507669      10.66715585
C       84.30331232      83.45116394      11.04571020
C       84.46870045      84.88830437      10.60152922
C       85.80351992      85.56116933      11.11077820
C       85.85788475      87.05696183      10.64489498
C       87.16254736      87.76211402      11.15440641
C       87.20652625      89.25687194      10.66477745
C       88.50615832      89.96974127      11.17524774
C       88.54834583      91.46157805      10.67625976
C       89.84627251      92.17765385      11.18627657
C       89.89054533      93.67502157      10.69073425
C       48.89405514      26.61706490      10.70611633
C       50.19441681      27.32515786      11.19838512
C       50.23834939      28.79921501      10.68828336
C       51.54996979      29.51742745      11.18634554
C       51.59255802      30.99955365      10.68126356
C       52.89601665      31.70750930      11.19191091
C       52.93580640      33.19222256      10.69312317
C       54.23195071      33.89173233      11.21860513
C       54.27519843      35.38104924      10.72752255
C       55.56378604      36.06300242      11.29374477
C       55.64420304      37.56219094      10.84035158
C       57.00671500      38.13259741      11.58784420
C       57.29164696      39.67824861      11.56324388
C       58.80419466      40.24420229      10.98676093
C       58.87683699      41.75364297      11.32489102
C       60.24898724      42.40914973      10.78828157
C       60.30019386      43.89782075      11.21681878
C       61.62224967      44.57423172      10.67812704
C       61.66126933      46.05725456      11.15006258
C       62.96433991      46.75426882      10.62865875
C       62.99804608      48.23054073      11.12940171
C       64.29718920      48.93661711      10.62237290
C       64.32561999      50.40763881      11.14411357
C       65.62657275      51.11742297      10.65830001
C       65.64671227      52.58474698      11.19496707
C       66.95282778      53.29618460      10.73258153
C       66.96491961      54.75320598      11.29830883
C       68.28958116      55.45432162      10.88327935
C       68.30715494      56.88941996      11.47131705
C       69.67818600      57.57018377      11.14279858
C       69.76596290      58.83136820      11.97676122
C       71.21235077      59.45993951      11.71548987
C       71.15872378      60.78788228      10.88568210
C       72.51344973      61.55298446      11.16271730
C       72.53167882      62.97872904      10.46321074
C       73.95308381      63.73755858      10.83610781
C       74.24850744      65.30756402      10.37963718
C       75.55554572      65.99381003      10.92985180
C       75.65436727      67.54997893      10.55952559
C       76.93971457      68.24474507      11.10440552
C       77.01635257      69.76561448      10.65610671
C       78.31090016      70.47373117      11.17909918
C       78.37209161      71.97022761      10.69343920
C       79.67697965      72.67695201      11.19589418
C       79.73373806      74.16329042      10.68990999
C       81.05065667      74.87496694      11.16911668
C       81.10202600      76.35027715      10.65719189
C       82.44161347      77.05553865      11.11432683
C       82.48213287      78.52125856      10.60379192
C       83.85456178      79.20734421      11.03076752
C       83.89902957      80.68610148      10.55356309
C       85.36433307      81.26410836      11.04848554
C       85.60070462      82.66885365      10.53341198
C       86.96768002      83.31581444      11.03059300
C       87.05692770      84.79721946      10.57427597
C       88.36214514      85.49374620      11.11024875
C       88.42113464      86.99217604      10.63827416
C       89.71771839      87.70430924      11.16458150
C       89.76652513      89.19701887      10.67057959
C       52.81752089      28.74959392      10.68075712
C       54.12800797      29.45689349      11.18451652
C       54.16610835      30.93815975      10.68675069
C       55.47350358      31.63589143      11.20023684
C       55.50851854      33.12286598      10.71959544
C       56.81319722      33.80332921      11.25759236
C       56.85353672      35.30136604      10.80992968
C       58.18123114      35.94268451      11.38371487
C       58.24969724      37.45463054      11.01908510
C       59.65956152      38.03403049      11.70538827
C       59.98332346      39.59465582      11.68403355
C       61.41884301      40.16976209      11.00952423
C       61.50898710      41.68883019      11.33549360
C       62.84837652      42.33448447      10.73503179
C       62.90355436      43.82348809      11.18324317
C       64.20562880      44.50420193      10.62586847
C       64.24446806      45.98258991      11.11730032
C       65.53718281      46.67750092      10.58471630
C       65.57280200      48.14908152      11.10550728
C       66.87200404      48.85152991      10.60384060
C       66.89808280      50.31040933      11.14514476
C       68.20001339      51.00809970      10.66369570
C       68.21499076      52.46641577      11.22480302
C       69.54393284      53.15551860      10.79242440
C       69.55832615      54.57054462      11.35960061
C       70.88131439      55.24490955      10.89538774
C       70.93626853      56.53426314      11.69248279
C       72.40975813      57.09708267      11.65625017
C       72.36351951      58.49501399      11.03135915
C       73.72025675      59.21682337      11.31572425
C       73.70606691      60.66535353      10.67600299
C       75.03745971      61.41836606      11.03255934
C       75.08776667      62.86855712      10.34939517
C       76.46922019      63.64059170      10.80401993
C       76.77602085      65.23119812      10.36494914
C       78.02417509      65.92137339      10.99864273
C       78.17843281      67.47778996      10.59372940
C       79.43677049      68.17658836      11.17975342
C       79.55630447      69.69343194      10.68329698
C       80.85492070      70.39341255      11.18988318
C       80.92724024      71.89877058      10.69473901
C       82.22516516      72.61530805      11.18530727
C       82.30004901      74.09841705      10.65722044
C       83.61780950      74.82038466      11.11805384
C       83.68569978      76.28300946      10.57200154
C       85.05156169      76.98794787      10.97120927
C       85.08627602      78.43665041      10.44506679
C       86.50956270      79.05287799      10.83899496
C       86.53610213      80.51481026      10.39430455
C       88.05850329      81.08329347      10.83049338
C       88.23768996      82.54717316      10.45323336
C       89.53913283      83.22746099      11.05048577
C       89.62650903      84.73043631      10.60510464
C       56.74643133      30.87214164      10.67878117
C       58.06597097      31.55705724      11.18309854
C       58.09292536      33.04817967      10.72649471
C       59.41815972      33.70820040      11.25212779
C       59.45287494      35.21102712      10.84041634
C       60.80174129      35.84250690      11.39431561
C       60.86896009      37.36153442      11.06517134
C       62.30672722      37.93785961      11.68277982
C       62.61593232      39.50451445      11.63429979
C       64.05918053      40.06918932      10.88404140
C       64.12775951      41.58612621      11.21505220
C       65.43758551      42.21300336      10.58338936
C       65.49175710      43.71060750      11.08321843
C       66.78803273      44.38098820      10.54344593
C       66.81126872      45.87244065      11.06364289
C       68.12550571      46.55580338      10.57617020
C       68.15684670      48.01806866      11.06515724
C       69.42626157      48.69434840      10.49500182
C       69.47841349      50.10435807      11.10541181
C       70.74640881      50.82298740      10.63357763
C       70.74806575      52.14072585      11.42676220
C       72.19471097      52.68627076      11.46741020
C       72.19715579      54.08404266      10.81309131
C       73.52751175      54.71812324      11.33827477
C       73.57128927      56.18158974      10.90771361
C       74.91138533      56.87189341      11.30791928
C       74.91628675      58.35515727      10.76329548
C       76.23259080      59.09001147      11.17005484
C       76.24673860      60.56167466      10.56634341
C       77.55665307      61.30977833      11.00181198
C       77.63046089      62.78451576      10.36908708
C       78.96601833      63.53797182      10.92216384
C       79.25096359      65.16657867      10.53800372
C       80.47046391      65.79317277      11.21629775
C       80.67097804      67.39820594      10.73783811
C       81.92086143      68.05268593      11.27734863
C       82.10157930      69.58837254      10.70526245
C       83.35041402      70.30572787      11.22428878
C       83.46572666      71.82363853      10.70851414
C       84.73804100      72.54233356      11.22986287
C       84.85480221      74.02894807      10.63362036
C       86.16287945      74.76219188      11.07351216
C       86.28349720      76.18985064      10.40202008
C       87.71725643      76.83159012      10.69508854
C       87.75411058      78.30871358      10.19525016
C       89.20451678      78.85942938      10.74771052
C       89.39070504      80.30070191      10.31838972
C       62.04992527      35.12166041      10.78945954
C       63.41366064      35.73265509      11.30496469
C       63.49264864      37.26404556      10.98994935
C       64.95525877      37.78659087      11.57214711
C       65.17979544      39.33580405      11.61276051
C       66.70050793      39.79862807      11.30982668
C       66.71430811      41.42103584      11.08405329
C       68.00370887      41.99705341      10.36341240
C       68.08465027      43.47142349      10.95938343
C       69.32496938      44.20391062      10.46475254
C       69.30871141      45.55574136      11.22934476
C       70.74375218      46.10521539      11.25214168
C       70.74137000      47.48143777      10.52733986
C       71.99849012      48.16802847      11.07688444
C       72.07378093      49.61376316      10.54730139
C       73.35048080      50.24239330      11.17507128
C       73.40996968      51.72549644      10.77169035
C       74.74163878      52.38796902      11.25926663
C       74.77010740      53.88006170      10.78716819
C       76.09547042      54.57769669      11.25741225
C       76.12855989      56.06361390      10.74693604
C       77.43942415      56.78267070      11.20392946
C       77.46081286      58.26612307      10.66082440
C       78.75867580      58.99076174      11.12641550
C       78.79033678      60.46721587      10.55996897
C       80.07775576      61.18308450      11.07075921
C       80.15010889      62.66562482      10.52513027
C       81.44357534      63.35227700      11.13830064
C       81.56233023      64.86266635      10.70798078
C       82.87337207      65.56363141      11.21134288
C       82.96876552      67.10223682      10.71958497
C       84.30663519      67.83611569      11.15261618
C       84.54424235      69.49890748      10.74080396
C       85.78914970      70.12600781      11.34401293
C       85.95765810      71.72691908      10.82648483
C       87.22074091      72.38780260      11.31881942
C       87.37432335      73.96318500      10.67067961
C       88.70795613      74.55738027      11.12284890
C       89.08985904      75.92461251      10.33473599
C       66.10871856      37.10231074      10.76156264
C       67.64131542      37.45730905      11.17494834
C       67.89675180      38.78373831      10.56863894
C       69.21655897      39.42671663      11.04493327
C       69.26944447      40.85467670      10.38710748
C       70.51762703      41.54344204      10.99193435
C       70.62747043      42.99336860      10.44144760
C       71.88620153      43.63400871      11.07532592
C       71.95467512      45.11064287      10.62883805
C       73.26486045      45.78513331      11.13538903
C       73.28779032      47.27712657      10.63256968
C       74.59344483      47.95677691      11.16029311
C       74.63597358      49.43638408      10.67232625
C       75.95024851      50.12191971      11.19361757
C       75.99476556      51.60664207      10.71170008
C       77.30805364      52.30688120      11.21353936
C       77.34219726      53.79323223      10.71944708
C       78.65212207      54.50409297      11.20395550
C       78.68403560      55.98854354      10.68686566
C       79.98538238      56.70276135      11.17146425
C       80.01439644      58.18485462      10.64170832
C       81.31018312      58.89609317      11.14184576
C       81.34632026      60.37703321      10.61561567
C       82.64524319      61.07962434      11.13791426
C       82.69496630      62.56592645      10.63968879
C       84.00101876      63.26688321      11.15675042
C       84.06535470      64.76164248      10.66475955
C       85.36680683      65.46572041      11.16534464
C       85.44124535      66.96750253      10.66130253
C       86.75018046      67.65114061      11.22257196
C       86.85068312      69.16857227      10.79648491
C       88.17576642      69.85006718      11.26019943
C       88.25153065      71.36945086      10.78536326
C       89.61040654      72.04801501      11.16676785
C       89.67381415      73.52320500      10.63422823
C       70.47641031      38.53480833      10.65757093
C       71.77519641      39.23245986      11.17476147
C       71.82946450      40.67800322      10.60692200
C       73.13134868      41.36534367      11.13983166
C       73.18521946      42.82399476      10.61632414
C       74.48799668      43.51683501      11.14282435
C       74.53638655      44.99157779      10.63374792
C       75.83691370      45.68909610      11.15767164
C       75.87324498      47.16973967      10.66044165
C       77.18044601      47.86802736      11.17748230
C       77.22024337      49.34845108      10.68207252
C       78.52976612      50.05153266      11.19140114
C       78.56854555      51.53405716      10.69376673
C       79.87656381      52.24073966      11.19376194
C       79.91018892      53.72345596      10.68836397
C       81.21489210      54.43175920      11.18364283
C       81.24603077      55.91449108      10.66941408
C       82.54596340      56.62265143      11.16794052
C       82.57768726      58.10528435      10.65180635
C       83.87657843      58.81225221      11.15709635
C       83.91264117      60.29462558      10.64588019
C       85.21434224      61.00026583      11.15650555
C       85.25602800      62.48436602      10.65289665
C       86.56193617      63.19006211      11.16179511
C       86.61014205      64.67711869      10.66163077
C       87.92250752      65.37970631      11.16226388
C       87.97294466      66.87003232      10.67093876
C       89.30040194      67.57115587      11.14376452
C       89.35451312      69.05744914      10.64469133
C       74.42234608      40.56364674      10.67714135
C       75.72728658      41.26519556      11.18357472
C       75.76831341      42.73224917      10.66104175
C       77.07124371      43.43629216      11.17334801
C       77.11163653      44.91258943      10.66340843
C       78.41476903      45.61656720      11.17621994
C       78.45327483      47.09565436      10.67389513
C       79.75993045      47.80081704      11.18331931
C       79.79875991      49.28041191      10.68210329
C       81.10634421      49.98684187      11.18818764
C       81.14316505      51.46573611      10.68406334
C       82.44971781      52.17043912      11.18667333
C       82.48135507      53.65077008      10.67830202
C       83.78335202      54.35577659      11.17941168
C       83.81321308      55.83849551      10.66750119
C       85.11116995      56.54564319      11.17039995
C       85.14439075      58.02927590      10.65887073
C       86.44385875      58.73741684      11.16365120
C       86.47979030      60.22097441      10.65543242
C       87.78255292      60.92945323      11.16008050
C       87.82193240      62.41261559      10.65354227
C       89.12967070      63.12230957      11.15144185
C       89.17222988      64.60442637      10.64181743
C       78.34361867      42.65740277      10.67906325
C       79.64733427      43.36447135      11.18429429
C       79.68585190      44.84333211      10.67621885
C       80.99097491      45.55096844      11.18306040
C       81.03107874      47.03043025      10.67894647
C       82.33877880      47.73888775      11.18696643
C       82.38072908      49.21656813      10.68491741
C       83.68967570      49.91930993      11.19216596
C       83.72737086      51.39268965      10.68857026
C       85.02685481      52.09295013      11.19516224
C       85.05641825      53.56820659      10.68347238
C       86.34992503      54.27454561      11.18403909
C       86.37813263      55.75882871      10.67189060
C       87.67376823      56.47057725      11.17316514
C       87.70892767      57.95649633      10.66200802
C       89.00838359      58.66823126      11.16489826
C       89.04559077      60.15215884      10.65540154
C       82.25980659      44.78008074      10.67964586
C       83.56634122      45.49084726      11.18767431
C       83.61349161      46.97289085      10.68752780
C       84.92022126      47.68029577      11.19794783
C       84.95935135      49.15045154      10.69815899
C       86.25340652      49.85169135      11.16087680
C       86.28951024      51.31925226      10.70321757
C       87.57886767      52.02122364      11.15818142
C       87.61241082      53.49233258      10.69202858
C       88.90243658      54.19839137      11.19020788
C       88.93614680      55.68333545      10.67624257
C       86.18068964      46.91370556      10.70252635
C       87.46762904      47.61485861      11.16448270
C       87.50214072      49.08661495      10.71196252
C       88.78608589      49.79255056      11.21282288
C       88.82836368      51.25698160      10.71002282
C       45.40308779      45.22451450       8.50252071
C       45.42386368      46.70543112       8.98529959
C       45.42800128      42.27077059       9.04713086
C       70.61945261      38.27203623       9.13977368
C       71.91038264      38.98411953       8.62258312
C       74.46530655      40.48472731       9.12020320
C       46.27106100      74.28326668       8.58479488
C       46.16245752      69.87737723       8.60245555
C       46.19806476      71.35779585       9.09440021
C       47.48750473      72.05961559       8.63943634
C       47.52391022      73.52384946       9.08759492
C       48.81597139      74.22917579       8.63662180
C       48.85461850      75.70135948       9.08648002
C       50.14056033      76.40135109       8.63724008
C       46.05748836      65.40635174       8.61397498
C       46.08903887      66.89392595       9.11931579
C       47.38788888      67.60471344       8.61820611
C       47.41749684      69.10140563       9.11414540
C       48.71285732      69.80433934       8.61357867
C       48.74122103      71.28923769       9.10558917
C       50.03445659      71.98940000       8.60740985
C       50.06619405      73.46491932       9.10099421
C       51.36397045      74.16567265       8.60593272
C       51.39749050      75.63686606       9.10289841
C       52.70428466      76.33951983       8.60884268
C       52.73990987      77.81417665       9.10933463
C       54.05507467      78.52587791       8.61127243
C       45.98249353      60.95940684       8.59368838
C       45.99114861      62.43576070       9.11075217
C       47.29738179      63.14100206       8.62615357
C       47.31966096      64.62764526       9.12820373
C       48.62003917      65.33498706       8.62967726
C       48.64935708      66.82494100       9.13011659
C       49.94781232      67.53117316       8.62721781
C       49.97474167      69.02232918       9.12572715
C       51.27580088      69.72411438       8.62445259
C       51.29988299      71.21165241       9.12137515
C       52.60784859      71.91043153       8.62249186
C       52.63315354      73.39403529       9.11961120
C       53.94453314      74.09307394       8.62023159
C       53.97548214      75.57250375       9.11899140
C       55.28584981      76.27637268       8.61478299
C       55.32295365      77.75711611       9.11635439
C       56.62507393      78.46753034       8.60570703
C       56.66836967      79.95183393       9.11086724
C       57.96404023      80.67110408       8.59738107
C       46.00796979      56.51456080       8.48189362
C       45.93353136      57.98677517       9.03432238
C       47.26521511      58.69337650       8.62756301
C       47.23997876      60.17212078       9.13679343
C       48.55307277      60.86877958       8.67120232
C       48.55786478      62.36085789       9.15590948
C       49.85857770      63.06304680       8.65577203
C       49.88244632      64.55682578       9.14581142
C       51.18125769      65.26394022       8.64052141
C       51.21187171      66.75372638       9.13874702
C       52.51198140      67.46068849       8.63396653
C       52.54283282      68.94705467       9.13560969
C       53.84595436      69.65205575       8.63271944
C       53.87665151      71.13519220       9.13483689
C       55.18260186      71.83851531       8.63190441
C       55.21442240      73.31998994       9.13155060
C       56.52120862      74.02282697       8.62554075
C       56.55537114      75.50489293       9.12229801
C       57.85796822      76.20937051       8.60893693
C       57.89360658      77.69501392       9.10449476
C       59.18466324      78.40386982       8.57901278
C       59.23188016      79.89335009       9.07802246
C       60.51157325      80.61971244       8.54002553
C       60.57202570      82.10440111       9.07112317
C       61.84570823      82.85912373       8.54549006
C       46.06606560      52.03328054       8.44113997
C       45.93696667      53.51045764       8.91193578
C       47.31491036      54.23290830       8.63490056
C       47.21681287      55.71635067       9.12161487
C       48.57193734      56.42576754       8.76505850
C       48.50886869      57.90640858       9.23127442
C       49.84821158      58.60045154       8.79580583
C       49.81025655      60.09391946       9.23764884
C       51.11031587      60.78656748       8.72685857
C       51.12195871      62.28951093       9.18200211
C       52.41711153      62.99902783       8.65970350
C       52.44580208      64.48956382       9.15173756
C       53.74502374      65.19975881       8.64111218
C       53.77744914      66.68555911       9.14218530
C       55.07963099      67.39510480       8.63753720
C       55.11242529      68.87779685       9.14221615
C       56.41801181      69.58524218       8.64170982
C       56.45006178      71.06645199       9.14378225
C       57.75742748      71.77071623       8.64260706
C       57.79046436      73.25269273       9.13772256
C       59.09701335      73.95542326       8.62876868
C       59.13029869      75.43936577       9.11624143
C       60.42963523      76.14270453       8.59340590
C       60.45893932      77.63175862       9.07009535
C       61.73114916      78.34379813       8.50387311
C       61.79159409      79.84042541       8.98768820
C       63.05090494      80.60736609       8.41390299
C       63.12669888      82.07251311       8.95720151
C       64.38923930      82.86257565       8.40330222
C       64.46137827      84.30215160       9.00815827
C       65.71478553      85.11582159       8.49265311
C       46.62405203      47.45175561       8.37329963
C       46.65524023      48.91346134       8.90214180
C       47.55180258      49.87519531       8.21619352
C       47.30956128      51.25998702       9.05253543
C       48.67246491      52.05635929       8.78323116
C       48.52221468      53.47429364       9.33440712
C       49.93108509      54.25614949       8.96151003
C       49.81718555      55.68082336       9.44822266
C       51.21545968      56.42195806       8.99359788
C       51.12683177      57.86192024       9.42853072
C       52.48458941      58.57459401       8.87545395
C       52.39469967      60.04257889       9.27248751
C       53.67350429      60.75616517       8.65931712
C       53.69237061      62.23399147       9.15792896
C       54.99002086      62.95038326       8.64086731
C       55.01407070      64.42916755       9.14472107
C       56.31562295      65.14286555       8.63582259
C       56.34663842      66.62308568       9.14407542
C       57.65254172      67.33615058       8.64617582
C       57.68402807      68.81433671       9.15460945
C       58.99413823      69.52326092       8.66094143
C       59.02348890      71.00300673       9.16140081
C       60.33360434      71.70831959       8.66320428
C       60.36857419      73.19235686       9.14807949
C       61.68067662      73.90519299       8.63677261
C       61.71091313      75.38821088       9.10885263
C       63.02188814      76.11123634       8.58112353
C       63.03389216      77.59754497       8.95726630
C       64.25254739      78.43221963       8.20977365
C       64.35787512      79.84415094       8.77853274
C       65.60978735      80.71371252       8.09222956
C       65.70147979      82.09446897       8.73244648
C       66.96595594      82.98913375       8.11483798
C       67.04379760      84.35088838       8.80766844
C       68.27659211      85.29561039       8.22547066
C       68.32802299      86.63578338       9.03605512
C       69.45809372      87.73023167       8.62266940
C       45.39974909      40.78549844       8.55610094
C       46.70122304      42.96436746       8.49318138
C       46.71857616      44.45992621       8.95198245
C       47.93902115      45.15852989       8.32955179
C       47.95259471      46.69528409       8.73928657
C       49.05792203      47.50320702       8.01521403
C       48.98131090      49.18378522       7.89721771
C       50.27617387      50.03294311       8.38204583
C       50.08892271      51.42846130       9.22121007
C       51.40863206      52.23442779       8.78217621
C       51.41001371      53.65202836       9.41798064
C       52.69584430      54.37723340       8.86776601
C       52.71786570      55.81620926       9.43266866
C       53.97503276      56.48982775       8.79897505
C       54.00704645      57.92986255       9.25961405
C       55.19526101      58.61392930       8.58132001
C       55.00646491      60.03602996       9.08963697
C       56.30683048      60.75660758       8.58627485
C       56.28031483      62.19302874       9.13285817
C       57.57808924      62.90386271       8.63227306
C       57.59069209      64.37614540       9.13598692
C       58.89313885      65.09695391       8.63535379
C       58.92039705      66.56736948       9.15580023
C       60.23335092      67.28530628       8.67139346
C       60.25964706      68.75686919       9.18339537
C       61.57747088      69.46987814       8.70123836
C       61.59856611      70.94993007       9.19479949
C       62.90659215      71.67007915       8.68462567
C       62.95625907      73.16645262       9.16688757
C       64.28592979      73.97762002       8.70101603
C       64.28416880      75.43349375       9.20290459
C       65.66047501      76.54442050       9.06835962
C       65.70532704      77.83250709       8.23437396
C       67.00168518      78.79560609       8.81085689
C       67.09622073      80.13848299       8.11358426
C       68.35845315      81.03192182       8.78809356
C       68.44955144      82.39840575       8.16331800
C       69.70721836      83.30399785       8.91357636
C       69.69957944      84.64324143       8.18485725
C       70.91375634      85.66917859       8.48779106
C       70.71074938      87.22474563       9.22897879
C       71.96717289      87.98416120       8.75268444
C       45.31705166      36.34262735       8.58462995
C       45.35119772      37.82783654       9.08215312
C       46.64924187      38.53005982       8.56570559
C       46.68033123      40.01634217       9.05450218
C       47.97189077      40.71505343       8.52616556
C       47.99510358      42.21017835       8.98969358
C       49.26419154      42.90990737       8.43176950
C       49.23895658      44.43258906       8.82269842
C       50.37494573      45.30570268       8.27312201
C       50.25958599      46.96094083       8.74402638
C       51.53135991      47.72869304       8.39022686
C       51.47639820      49.21797127       8.97060390
C       52.78721579      49.96617945       8.56603376
C       52.75154822      51.43596998       9.15664220
C       54.03443636      52.16678833       8.66362855
C       54.05643255      53.61550711       9.23809220
C       55.33764443      54.31787011       8.69321226
C       55.36592095      55.77452499       9.20388837
C       56.63585792      56.45201521       8.61786433
C       56.65208873      57.91108479       9.05977963
C       57.88021579      58.60553166       8.52026909
C       57.65080723      60.00153603       9.07803274
C       58.99337812      60.72677864       8.64500152
C       58.87976523      62.15118067       9.13631516
C       60.16443518      62.87939440       8.57504571
C       60.17216499      64.33033296       9.12667890
C       61.48157432      65.06461102       8.65385313
C       61.50033335      66.52176635       9.19214415
C       62.82941161      67.25280427       8.73561437
C       62.84268874      68.71715703       9.24202163
C       64.17996990      69.45245092       8.77844907
C       64.18216687      70.93591567       9.20179831
C       65.44086204      71.85160478       8.56244678
C       65.51222023      73.23767574       9.26172990
C       66.88525879      74.37145699       9.26971544
C       66.90704702      75.76698113       8.62838171
C       68.23571121      76.60939197       9.07160962
C       68.30881818      78.03725830       8.47272680
C       69.60417662      78.83383343       9.00933623
C       69.68317205      80.28304687       8.46212418
C       70.95247263      81.05745601       9.06258598
C       71.01844136      82.53816835       8.58256555
C       72.25592435      83.29794133       9.21422838
C       72.28382379      84.80009138       8.71356444
C       73.46750520      85.57031792       9.43420532
C       73.19515012      87.25345007       9.41051022
C       74.45114842      87.92785769       8.80568334
C       74.43640423      89.49938068       9.19069568
C       75.72035622      90.21966297       8.65778600
C       45.21001121      31.88602102       8.59709653
C       45.24663685      33.37439817       9.10082928
C       46.54756934      34.08456460       8.59437864
C       46.58405744      35.57079205       9.09260021
C       47.88702946      36.27731810       8.58382996
C       47.92082577      37.76323941       9.07564219
C       49.22281775      38.46839010       8.56421356
C       49.24766291      39.95898671       9.04549659
C       50.53666531      40.67500974       8.54097405
C       50.53486899      42.18146262       9.02177369
C       51.72106796      42.98825776       8.53378552
C       51.56922388      44.65432663       8.91896319
C       52.80540820      45.41648110       8.44937291
C       52.75246862      46.94854156       8.94985657
C       54.04433504      47.68689047       8.51218769
C       54.04161230      49.17563602       9.05734722
C       55.33168987      49.90106510       8.57920637
C       55.33659228      51.37649406       9.11731155
C       56.63066626      52.08936185       8.61609957
C       56.65654476      53.55667430       9.14151106
C       57.95396320      54.25951719       8.61851856
C       57.97466202      55.72903084       9.11432076
C       59.26745591      56.43970720       8.60773454
C       59.26805709      57.92370407       9.09235526
C       60.54842066      58.58314015       8.57332891
C       60.51884920      60.02373404       9.05681373
C       61.72128040      60.72886405       8.45360473
C       61.49340258      62.14010738       9.00113275
C       62.78503818      62.88304649       8.53741821
C       62.75920791      64.30326477       9.15292630
C       64.07961559      65.05563231       8.73663563
C       64.09109754      66.50611877       9.28940158
C       65.44263883      67.29731123       8.90000570
C       65.40398579      68.75825328       9.42871396
C       66.75864222      69.88528555       9.38663432
C       66.84442831      71.22454555       8.59831216
C       68.07784262      72.17270942       9.23624611
C       68.12432619      73.62554590       8.72252728
C       69.45023117      74.40101667       9.18175629
C       69.50759258      75.84789470       8.62152709
C       70.81326357      76.60521099       9.12105978
C       70.88223050      78.06875709       8.58079901
C       72.16795298      78.81191325       9.11949073
C       72.23296151      80.29553436       8.61437459
C       73.51145143      81.01957350       9.17174927
C       73.54309014      82.53050604       8.71439929
C       74.80975408      83.25528411       9.25417178
C       74.74968913      84.83797714       8.83823427
C       76.03813867      85.48204753       9.33286515
C       75.72849213      87.23305867       9.35617008
C       76.94979851      87.94244885       8.72229174
C       76.97464408      89.47311958       9.18129351
C       78.26369983      90.19116648       8.65479328
C       78.29974975      91.69232812       9.13657587
C       79.59829720      92.40442251       8.62426959
C       45.09856065      27.44586470       8.62937995
C       45.13515859      28.91166780       9.08892188
C       46.42942242      29.61927567       8.59279293
C       46.46995241      31.10552801       9.10019968
C       47.77158267      31.82514185       8.60096078
C       47.81033862      33.31260047       9.10393190
C       49.11560150      34.02491783       8.60073771
C       49.15275998      35.51023561       9.09872510
C       50.45994671      36.22006035       8.59755179
C       50.49062785      37.70659297       9.08831337
C       51.78933793      38.41983310       8.58651952
C       51.79745247      39.91858654       9.06274587
C       53.03464874      40.65630875       8.51993204
C       53.01294623      42.20177123       8.99337763
C       54.11477679      43.09839820       8.44318977
C       54.00485998      44.64889369       9.00101916
C       55.29685340      45.39365719       8.53677188
C       55.29188621      46.90550607       9.02867740
C       56.58598803      47.62677147       8.55359835
C       56.59827388      49.11635769       9.07110889
C       57.89314242      49.83276650       8.58025086
C       57.91501564      51.31208880       9.09621218
C       59.21474669      52.02489133       8.59477395
C       59.24400923      53.49857880       9.10417854
C       60.54587135      54.21086186       8.60172354
C       60.57098490      55.68330446       9.10287870
C       61.87730879      56.38441281       8.61231043
C       61.88582951      57.85603125       9.08910354
C       63.18006346      58.53445944       8.56775480
C       63.15727295      60.00137704       8.97113283
C       64.39794294      60.70343345       8.47879822
C       64.10221643      62.12192335       9.01225438
C       65.40973397      62.89483399       8.63084977
C       65.33932997      64.29661148       9.27367848
C       66.63508047      65.12019344       8.87831655
C       66.65275690      66.55144016       9.52082156
C       67.96649402      67.61077994       9.52164166
C       67.96138210      69.08311239       8.90286661
C       69.30000605      69.93333408       9.30235728
C       69.35455204      71.41797305       8.76094304
C       70.66838272      72.16639765       9.22983357
C       70.71224618      73.63200615       8.69452901
C       72.02453864      74.36427514       9.17684098
C       72.07823337      75.83350157       8.65030546
C       73.37892989      76.55904387       9.15688390
C       73.43464791      78.03966766       8.64755518
C       74.72736845      78.75569521       9.16895899
C       74.77415585      80.24969232       8.68031741
C       76.05948861      80.95816422       9.21290141
C       76.07496090      82.46520687       8.73397481
C       77.36227758      83.19802284       9.22144748
C       77.16464626      84.73459097       8.56827292
C       78.40509159      85.64154142       8.54547597
C       78.22711614      87.19840802       9.16877959
C       79.50478212      87.93263727       8.66222860
C       79.52852712      89.43128505       9.16386970
C       80.82029034      90.14490288       8.63994597
C       80.86008906      91.63698096       9.13420916
C       82.15869149      92.34928056       8.62139764
C       82.19926198      93.83652573       9.12139872
C       83.50201754      94.54851111       8.61455715
C       45.02496571      24.50866810       9.07788329
C       46.32496990      25.21542396       8.58327958
C       46.35583441      26.68093101       9.08272696
C       47.64257236      27.37975334       8.63318619
C       47.68260566      28.85161287       9.09470022
C       48.98386182      29.56727490       8.60157696
C       49.02986670      31.05236392       9.10790676
C       50.33708304      31.77214835       8.60926509
C       50.37749460      33.25674714       9.11398971
C       51.68702585      33.97233845       8.61755798
C       51.72310274      35.45586411       9.12066643
C       53.03378117      36.17316549       8.63318794
C       53.05490420      37.66190232       9.12089521
C       54.35028186      38.38155625       8.62923066
C       54.30314443      39.89899444       9.04545332
C       55.44664687      40.77135311       8.54448793
C       55.32120380      42.38978884       9.00790793
C       56.59776318      43.10582607       8.58055140
C       56.54765957      44.63206444       9.06800976
C       57.83553464      45.35094842       8.58896129
C       57.84349876      46.85271634       9.07314359
C       59.13723762      47.56749992       8.57922809
C       59.16112768      49.05773160       9.07994696
C       60.45856808      49.77535352       8.58209326
C       60.48922229      51.25642299       9.09045248
C       61.79303864      51.97607694       8.59652947
C       61.82497983      53.45171437       9.10770772
C       63.13753144      54.17141317       8.62850101
C       63.16354393      55.64224094       9.14039724
C       64.48519548      56.35706056       8.67956382
C       64.49197461      57.82555533       9.16399730
C       65.81784019      58.52612155       8.72410548
C       65.80439299      59.97726851       9.12693801
C       67.02735097      60.77477598       8.67476872
C       66.68308880      62.14732243       9.16338938
C       68.06632188      63.02916676       8.77447711
C       67.91318220      64.39667107       9.34325693
C       69.14958107      65.31899986       8.60449564
C       69.21375559      66.95018258       8.79545984
C       70.53249950      67.69575487       9.28030363
C       70.55309717      69.18975108       8.76365380
C       71.88210031      69.92868858       9.20443984
C       71.91996318      71.40411962       8.70049954
C       73.23935965      72.11910265       9.17958758
C       73.28348319      73.59453209       8.67309600
C       74.59292716      74.30650345       9.16810326
C       74.63949458      75.78592297       8.66256754
C       75.94191244      76.49593606       9.16598807
C       75.98550933      77.98265165       8.66821602
C       77.28370877      78.69046161       9.17524481
C       77.31472795      80.18927385       8.69211042
C       78.60991241      80.89910264       9.19377708
C       78.60737115      82.43059599       8.73246043
C       79.86440881      83.12961297       9.30261583
C       79.55961655      84.89249812       9.27027778
C       80.81863998      85.57559237       8.72073319
C       80.77027696      87.14200938       9.16504794
C       82.04981704      87.86963252       8.63732449
C       82.08352774      89.37169100       9.13717594
C       83.37955986      90.09049624       8.62013528
C       83.42180211      91.57873978       9.12372244
C       84.72331211      92.29335508       8.61429824
C       84.76631026      93.77910907       9.11867107
C       86.07115435      94.49281305       8.61065110
C       86.11977424      95.97917778       9.11008972
C       87.42320756      96.69263811       8.59966967
C       48.89499685      26.61533494       9.09122859
C       50.19555135      27.32307365       8.59895978
C       50.23978656      28.79911466       9.10661725
C       51.55226634      29.52048907       8.61105392
C       51.59704483      31.00376840       9.11867204
C       52.90547188      31.72242798       8.62066392
C       52.94736855      33.20509313       9.13263763
C       54.25878846      33.93042146       8.64892317
C       54.29271325      35.41150390       9.17028225
C       55.60674257      36.15123110       8.72577959
C       55.60109629      37.63750050       9.26244183
C       56.83287207      38.44728655       8.87633532
C       56.62354616      40.09158704       9.24501311
C       57.89188590      40.78211929       8.79795005
C       57.80957690      42.34929841       9.18966874
C       59.09011948      43.05190262       8.69173747
C       59.08414782      44.57998669       9.13078504
C       60.37084250      45.29110448       8.61593668
C       60.39742419      46.79636847       9.09187313
C       61.68980108      47.51757976       8.58287158
C       61.72422398      49.00628483       9.08189855
C       63.02302754      49.73127647       8.58219940
C       63.06049138      51.21044060       9.09728855
C       64.36752546      51.94180985       8.61426525
C       64.40445260      53.41372603       9.14042580
C       65.72392170      54.15594544       8.68329084
C       65.75043074      55.62013442       9.22561612
C       67.08389081      56.38459575       8.82640837
C       67.08233086      57.85245878       9.39559754
C       68.39956952      58.70824929       9.10252907
C       68.38292365      60.35335391       9.46288161
C       69.63326785      61.06096085       8.87962261
C       69.59532909      62.61776233       9.21739499
C       70.77156650      63.23092690       8.37932391
C       70.64153018      64.78923727       8.30979503
C       71.80074866      65.48630237       9.00949652
C       71.80465499      67.00024793       8.65121024
C       73.12432146      67.69538236       9.10913546
C       73.14236798      69.18142489       8.64568538
C       74.46455947      69.87557953       9.13424862
C       74.50003290      71.35747485       8.65453069
C       75.81355278      72.05581192       9.15233878
C       75.85371292      73.53611551       8.65820991
C       77.16096784      74.23892168       9.15722792
C       77.19931621      75.72128218       8.65686831
C       78.50333638      76.42646659       9.15079005
C       78.53457669      77.91583745       8.65350413
C       79.83687241      78.62315458       9.13931768
C       79.84930593      80.12909422       8.65247292
C       81.14197548      80.84379734       9.13392196
C       81.07691222      82.40802959       8.69220583
C       82.36874654      83.08286612       9.16404000
C       82.07370728      84.85404986       9.25031623
C       83.29468093      85.58505034       8.62254632
C       83.31554813      87.10218815       9.12529135
C       84.60471032      87.83385648       8.60400000
C       84.64449408      89.32031467       9.11554505
C       85.94581261      90.03846758       8.60621641
C       85.98702483      91.52281054       9.11551425
C       87.29010326      92.23751788       8.60942988
C       87.33495323      93.72592875       9.11270011
C       88.63567366      94.44378223       8.60545153
C       88.67915605      95.92746980       9.09945850
C       89.97053165      96.63363204       8.63674066
C       90.00582287      98.09767901       9.08565494
C       52.81573797      28.75286916       9.11658774
C       54.12112243      29.46954234       8.61282832
C       54.16645674      30.95238931       9.12557286
C       55.47012396      31.67808149       8.62945768
C       55.51484005      33.15831379       9.16009161
C       56.81846798      33.90124323       8.68942984
C       56.85169858      35.37578766       9.25538000
C       58.13416148      36.15260722       8.83168837
C       58.12071696      37.63240785       9.45453295
C       59.33050733      38.42456537       9.03434600
C       59.09414009      40.03579790       9.45606134
C       60.35702660      40.73173802       8.90357960
C       60.33060989      42.29715648       9.25828832
C       61.59993551      42.99859282       8.69119583
C       61.62876101      44.52823637       9.13240547
C       62.91017789      45.25960751       8.59845368
C       62.95338528      46.75375292       9.08153025
C       64.24783767      47.48422945       8.56287340
C       64.28772001      48.96505798       9.07401139
C       65.58492547      49.70395877       8.57797562
C       65.62924262      51.17592387       9.11024367
C       66.93410741      51.93562754       8.64104394
C       66.97689887      53.39435181       9.19382573
C       68.29809020      54.17456210       8.76685011
C       68.31942487      55.62736413       9.35255084
C       69.60955269      56.48820769       8.95862264
C       69.66013439      57.93738731       9.60236744
C       70.90996329      58.85656832       9.04990706
C       70.95713551      60.42649588       9.39234412
C       72.20119992      61.10533188       8.67566519
C       72.20999159      62.65362202       8.94787110
C       73.41692572      63.26085580       8.21708953
C       73.20058662      64.84308630       8.24749036
C       74.43807490      65.46126002       8.84538781
C       74.42111654      66.98021533       8.50204927
C       75.72287280      67.64500207       9.02736062
C       75.74343951      69.13238749       8.58770857
C       77.05139171      69.81115195       9.10932123
C       77.08422605      71.29318732       8.63424785
C       78.38879284      71.98576726       9.14494200
C       78.42422698      73.46522232       8.64614378
C       79.73000716      74.16657022       9.14067998
C       79.75765640      75.64754626       8.63286520
C       81.06351345      76.35342863       9.10970413
C       81.08013416      77.84357420       8.60265061
C       82.38662099      78.55432971       9.06503613
C       82.37486980      80.06477124       8.57281462
C       83.67498954      80.80682141       9.00519323
C       83.47634637      82.36896138       8.37085542
C       84.71979098      83.28779061       8.33020741
C       84.57255443      84.82995221       9.02592725
C       85.85178907      85.58874813       8.53835095
C       85.87581669      87.06530535       9.08591749
C       87.17679189      87.78816351       8.58407819
C       87.21195860      89.26629075       9.10385081
C       88.51548469      89.98122547       8.60385559
C       88.55213723      91.46566671       9.11355417
C       89.85320534      92.18044513       8.61094416
C       89.89355087      93.67565877       9.10904723
C       56.73105182      30.90039415       9.11856364
C       58.02255106      31.63682061       8.61424625
C       58.07404734      33.11391128       9.16913913
C       59.35819250      33.87542165       8.68964491
C       59.39779098      35.34185319       9.29571694
C       60.65969602      36.12529635       8.85488481
C       60.66199590      37.58639563       9.52172113
C       61.84651925      38.38698725       9.04660858
C       61.61949610      39.98512798       9.48050775
C       62.85198649      40.68450990       8.85327434
C       62.86764325      42.25744669       9.20410281
C       64.12437584      43.02022200       8.61446659
C       64.17856936      44.50812715       9.09011424
C       65.46782530      45.24763948       8.54378877
C       65.51847633      46.72490784       9.04447638
C       66.82171207      47.47602486       8.54128252
C       66.85507907      48.94701008       9.05288880
C       68.14376914      49.73765257       8.53890158
C       68.19535527      51.17495493       9.11579981
C       69.50081894      51.99144329       8.65719150
C       69.56416007      53.40920757       9.24405454
C       70.84499590      54.32608588       8.74913207
C       70.85176021      55.71692901       9.40331305
C       72.15559143      56.68693034       8.96712420
C       72.22148054      58.23058500       9.47922785
C       73.48609195      58.93840559       8.78526354
C       73.54979717      60.45595838       9.15501269
C       74.82010126      61.11222019       8.50191201
C       74.83827815      62.63380622       8.81317716
C       76.07022272      63.24077529       8.14220251
C       75.83168649      64.81420423       8.15465726
C       77.05325802      65.41169954       8.82817898
C       77.05214340      66.92045088       8.47821324
C       78.33375536      67.57763633       9.05412705
C       78.35129269      69.05836640       8.59549769
C       79.64023700      69.73730201       9.13335239
C       79.66795940      71.21641133       8.64225358
C       80.96665633      71.91422599       9.15290838
C       80.99643701      73.38575217       8.63152594
C       82.30556719      74.08984548       9.10838702
C       82.31293790      75.56708210       8.58116441
C       83.62080431      76.27910398       9.03094161
C       83.61686163      77.77358298       8.49930881
C       84.92474674      78.50551735       8.91433828
C       84.87120973      80.05080354       8.43801701
C       86.15572000      80.79585343       8.90222986
C       85.89503445      82.53110373       8.98452629
C       87.14971132      83.30420858       8.45934281
C       87.12037397      84.80271798       9.01044938
C       88.42571662      85.53713084       8.54020530
C       88.44363518      87.01001619       9.07817046
C       89.75170527      87.72428407       8.59366202
C       89.77899390      89.20461568       9.10925354
C       60.62569082      33.07387141       9.12286911
C       61.89324642      33.85091338       8.62299061
C       61.94121508      35.30514077       9.25641106
C       63.18446265      36.10522721       8.78682985
C       63.21501455      37.56203722       9.45707604
C       64.36953916      38.39591711       8.91335547
C       64.20336401      39.95247342       9.32120702
C       65.31904362      40.80870658       8.47595517
C       65.42179995      42.26537730       9.03899714
C       66.68888263      43.04657656       8.45582036
C       66.75153882      44.50140239       8.99555996
C       68.05100595      45.30213637       8.48411584
C       68.11486066      46.73282196       9.01239891
C       69.40087764      47.58673949       8.43460486
C       69.41062696      48.99570117       8.96943927
C       70.75559644      49.89036315       8.48038414
C       70.74918663      51.26534744       9.13046178
C       72.10584633      52.24780935       8.75190740
C       72.15307635      53.76207666       9.26420562
C       73.43844845      54.55894464       8.76702458
C       73.48229464      56.04279510       9.34438421
C       74.76008394      56.76653506       8.74713178
C       74.81879520      58.24808664       9.21868991
C       76.10968732      58.93194870       8.61119084
C       76.15536744      60.42836751       9.02503103
C       77.45464706      61.09172494       8.45289189
C       77.46715955      62.60366732       8.80847213
C       78.73527506      63.21476017       8.21599911
C       78.52747379      64.77087457       8.23351805
C       79.67751078      65.38235600       9.04594071
C       79.72094634      66.84669201       8.59503414
C       80.94913644      67.53082023       9.21220422
C       80.96461516      68.97366707       8.65503717
C       82.25320846      69.66372213       9.13918836
C       82.25569657      71.14730942       8.65502999
C       83.57265588      71.84449557       9.15487892
C       83.59137479      73.30052855       8.60788786
C       84.90215519      74.01283114       9.07472708
C       84.86120688      75.48785890       8.49025715
C       86.17646780      76.22177549       8.86287135
C       86.13955107      77.74127491       8.32630057
C       87.45551408      78.52320004       8.65481902
C       87.26841170      80.14211816       8.10513481
C       88.54093607      81.07411557       8.14136741
C       88.40256456      82.54657447       8.88990396
C       89.70974742      83.29734045       8.48969827
C       89.69162335      84.75833367       9.05068150
C       64.47827102      35.28603776       9.14803302
C       65.69214359      36.12934870       8.65613855
C       65.73215601      37.61690746       9.22483750
C       66.80257643      38.52669888       8.35952736
C       66.70152619      40.11188727       8.01535314
C       68.11965579      41.01164381       8.12349025
C       67.98995657      42.33484321       8.82744358
C       69.36223901      43.24862245       8.34296659
C       69.33051997      44.61872241       8.96624531
C       70.69587753      45.57083547       8.56177242
C       70.73151109      47.08949695       8.99324991
C       72.06353496      47.86956875       8.50779051
C       72.08575545      49.35518151       9.00373263
C       73.38743796      50.14502856       8.58847469
C       73.40260248      51.60660005       9.19608838
C       74.69227523      52.36240060       8.68683938
C       74.73104948      53.82976116       9.22334160
C       76.02452594      54.54785638       8.68736880
C       76.06978489      56.02407102       9.19251291
C       77.36894034      56.72145209       8.63647088
C       77.41604507      58.20624176       9.10572978
C       78.72615237      58.89462361       8.55897061
C       78.76314659      60.38991226       9.00639233
C       80.08487669      61.08276622       8.50314358
C       80.08322753      62.58389302       8.94915179
C       81.37294739      63.31269549       8.55218622
C       81.33651536      64.74823394       9.16290410
C       82.59004453      65.47223823       8.63953225
C       82.62322131      66.90914446       9.18369797
C       83.84641754      67.53308086       8.45889491
C       83.67757831      69.06057184       8.47937189
C       84.88662232      69.67136379       9.22567995
C       84.95064138      71.10701804       8.71648440
C       86.20872563      71.81109648       9.30026680
C       86.24953384      73.21055686       8.65383790
C       87.54052500      73.99761606       9.11725310
C       87.36882472      75.42429876       8.22653924
C       88.68644016      76.26638312       7.88018354
C       88.56236485      77.91232172       7.82085638
C       89.87539934      78.78586633       8.08212770
C       89.68988703      80.27645544       8.76625842
C       68.08253239      38.24509393       9.04798043
C       69.36876837      38.93144565       8.51148307
C       69.36754666      40.46296253       8.85636622
C       70.70465744      41.21014329       8.42905931
C       70.68559865      42.70466420       8.90016228
C       71.99061502      43.48029464       8.49054319
C       71.98850052      44.95270659       9.05825908
C       73.29333479      45.69990707       8.56489822
C       73.31950161      47.17639633       9.06642849
C       74.62492621      47.91370106       8.58638570
C       74.64887056      49.39350159       9.10470413
C       75.95149359      50.12017588       8.62234187
C       75.97802443      51.59611099       9.15272259
C       77.27844376      52.30905815       8.64321114
C       77.31500046      53.78401919       9.15934338
C       78.61689742      54.48639189       8.63303603
C       78.65799172      55.96576264       9.12759076
C       79.96394744      56.66367452       8.60093336
C       80.00385712      58.14897319       9.08284729
C       81.31350444      58.85017371       8.57227816
C       81.34670653      60.33977786       9.05866063
C       82.64737333      61.05476989       8.56687948
C       82.66312318      62.54367408       9.07219649
C       83.95917447      63.25388695       8.58265499
C       83.96517275      64.73229565       9.09790201
C       85.28080759      65.43143007       8.59420312
C       85.28274615      66.91040818       9.08993483
C       86.56502240      67.63809118       8.63826810
C       86.56607307      69.05916901       9.25303707
C       87.81057326      69.79485928       8.68552831
C       87.86431180      71.21205570       9.26202411
C       89.06545685      71.93268237       8.60242987
C       89.08023055      73.36665343       9.12953514
C       90.11407956      74.17503873       8.45202014
C       89.77596072      75.73144821       8.79450431
C       71.92281256      40.50848781       9.05445385
C       73.22325812      41.23469022       8.57231833
C       73.23361581      42.73792124       9.05153072
C       74.53844491      43.46078729       8.57296591
C       74.55802659      44.94867698       9.07704580
C       75.86148940      45.66898482       8.58758035
C       75.88863881      47.15217517       9.09924725
C       77.19214355      47.86725974       8.60618074
C       77.22228282      49.34705344       9.12142691
C       78.52518486      50.05709710       8.62025228
C       78.55768636      51.53460753       9.13284010
C       79.86185625      52.23914077       8.62236978
C       79.89704042      53.71710779       9.12703792
C       81.20207124      54.41791695       8.61190986
C       81.23828239      55.89946022       9.10841219
C       82.54293610      56.60176330       8.59673145
C       82.57833091      58.08724484       9.09144454
C       83.88017646      58.79557502       8.58596717
C       83.91207103      60.28416578       9.08516577
C       85.21134870      60.99233185       8.58511828
C       85.23819424      62.47838911       9.09167794
C       86.53824977      63.18332234       8.59150749
C       86.56466936      64.66363084       9.10442276
C       87.85492007      65.37383242       8.59202881
C       87.87700179      66.85408317       9.10519483
C       89.15299283      67.55655366       8.57461106
C       89.16996593      69.03242600       9.08459816
C       75.76285046      41.19986385       8.61376981
C       75.79173578      42.69743915       9.10161928
C       77.09292019      43.41084900       8.60245696
C       77.12320940      44.89896154       9.10288194
C       78.42626709      45.61068771       8.60504686
C       78.45866625      47.09335285       9.11271775
C       79.76312474      47.80255639       8.61199600
C       79.79749394      49.28175864       9.12076218
C       81.10267838      49.98793385       8.61462433
C       81.13767313      51.46477131       9.12135776
C       82.44361024      52.16613175       8.61134093
C       82.47660895      53.64512924       9.11408993
C       83.77976740      54.34625313       8.60410620
C       83.81196681      55.82971886       9.10493542
C       85.11134559      56.53488259       8.59682338
C       85.14521209      58.02167621       9.09754701
C       86.44430953      58.72884059       8.59227664
C       86.47719017      60.21564976       9.09421337
C       87.77594600      60.92199175       8.58882497
C       87.80831062      62.40612955       9.09289246
C       89.10408823      63.11146959       8.58044207
C       89.13551527      64.59576529       9.08207797
C       78.35229375      42.64146642       9.11828125
C       79.65380851      43.35257798       8.61305020
C       79.69018701      44.83826212       9.11498553
C       80.99441031      45.54837028       8.61174582
C       81.03237386      47.02989356       9.11681456
C       82.33906421      47.73883589       8.61056118
C       82.37947740      49.21637570       9.11419044
C       83.68777854      49.91765928       8.60497959
C       83.72520422      51.39051133       9.10688324
C       85.02483657      52.08833183       8.59574094
C       85.05516186      53.56386084       9.10181286
C       86.34933755      54.26779072       8.59683739
C       86.37820587      55.75362985       9.10118065
C       87.67424197      56.46307798       8.59672619
C       87.70890167      57.95135099       9.09986227
C       89.00754063      58.65975009       8.59354683
C       89.04226428      60.14608562       9.09414716
C       82.26081094      44.77823572       9.11769859
C       83.56696163      45.48970752       8.60967012
C       83.61364235      46.97236249       9.10972054
C       84.92026967      47.67925134       8.59907595
C       84.95886752      49.14934122       9.09813781
C       86.25307655      49.84920051       8.63370606
C       86.28901887      51.31685655       9.08830905
C       87.57885128      52.01717747       8.63099741
C       87.61246359      53.48890995       9.09201696
C       88.90320257      54.19273651       8.59130980
C       88.93679950      55.67926902       9.09843660
C       86.18107042      46.91300604       9.09481804
C       87.46851056      47.61323921       8.63286167
C       87.50238691      49.08514114       9.08358426
C       88.78692512      49.78962939       8.58203130
C       88.82874042      51.25468098       9.08159369
F       45.50319305      56.44539118      12.38094616
F       45.20339713      52.13192638      12.28879303
F       62.07728595      33.48518975      12.54479217
F       65.95049459      35.42786188      12.50608317
F       46.26773687      74.27160221      12.60164634
F       46.15502968      69.88012216      12.58329863
F       46.03004700      65.40327185      12.56447448
F       47.37673304      67.60598856      12.57279058
F       48.70479461      69.81398917      12.58212667
F       50.02591674      71.99899968      12.58819658
F       51.35511986      74.17273551      12.58671854
F       52.69987781      76.34329203      12.57737608
F       54.06334177      78.52470813      12.56583466
F       45.84959884      60.92927088      12.53861898
F       47.22929743      63.15194052      12.57499621
F       48.59278387      65.34955737      12.57958951
F       49.93863883      67.53692583      12.57976286
F       51.27146790      69.72635471      12.58080728
F       52.60966133      71.91270657      12.58047032
F       53.94661815      74.10234017      12.57658085
F       55.29672251      76.28635458      12.56734273
F       56.64889284      78.46793425      12.55572977
F       58.01169086      80.63076506      12.54662997
F       46.96165093      58.68605787      12.55959584
F       48.39650821      60.92789263      12.61498932
F       49.80556207      63.11726735      12.60322824
F       51.16761292      65.28484330      12.59036772
F       52.50474350      67.46809446      12.58428727
F       53.83705554      69.65688575      12.58311073
F       55.17293824      71.84928726      12.58226470
F       56.51804857      74.04203052      12.57582729
F       57.87504090      76.23298889      12.55883969
F       59.24734344      78.41281467      12.52714722
F       60.63694659      80.55045784      12.48544834
F       62.00665986      82.65238411      12.48286856
F       46.55936735      54.25182864      12.47997131
F       48.00609323      56.45925791      12.65742184
F       49.46900596      58.71801133      12.71144854
F       50.99014989      60.94799151      12.66705711
F       52.40951523      63.03419509      12.60943480
F       53.73966232      65.20744713      12.59133399
F       55.06900896      67.39381252      12.58772521
F       56.39715725      69.58924360      12.59191795
F       57.73419446      71.78939138      12.59265530
F       59.08627919      73.98880943      12.57880138
F       60.44608292      76.18832253      12.54289400
F       61.86181568      78.36002857      12.44894443
F       63.27132268      80.43382801      12.34100079
F       64.61896279      82.51760017      12.31575450
F       65.95893680      84.59984250      12.38116481
F       46.07061894      49.71081114      12.39545574
F       47.43851137      52.01417518      12.73580845
F       48.97157513      54.24186501      12.91288352
F       50.42968064      56.53379028      12.98426478
F       51.88065635      58.81362914      12.90702303
F       53.67090924      60.72397759      12.62336881
F       54.96836525      62.93282060      12.59467780
F       56.30015502      65.13082302      12.58462437
F       57.62240425      67.32029317      12.59595086
F       58.94595865      69.52392428      12.61062350
F       60.28863379      71.73224582      12.61191007
F       61.64305180      73.92928653      12.58972309
F       62.98872418      76.16218232      12.54199777
F       64.46585371      78.21023896      12.29626460
F       65.79633201      80.27453709      12.13966581
F       67.08872618      82.36484127      12.12867811
F       68.48300045      84.42761416      12.27534630
F       69.47196257      86.67355901      12.71280790
F       71.57594355      88.42788779      12.66872039
F       45.71323581      45.23492868      12.43968978
F       47.09146743      47.22796604      12.28476818
F       48.26823244      49.03556632      12.46736428
F       49.34360058      50.87396311      12.82094085
F       50.68362895      52.77105803      12.86832512
F       52.06915655      54.98755705      12.96715060
F       53.54024854      57.32950432      12.88615253
F       56.03991431      60.51744103      12.53083762
F       57.49656227      62.91774421      12.57897837
F       58.85883116      65.03775569      12.58435365
F       60.15619875      67.24010817      12.62010167
F       61.47136276      69.46112653      12.64949740
F       62.84935847      71.65313842      12.63506661
F       64.17057697      73.77349943      12.65340480
F       65.64405047      75.75023885      12.62403830
F       66.92728538      77.81690707      12.37408140
F       68.16703899      79.84079123      12.26500990
F       69.37719377      81.83178420      12.29564718
F       70.83166149      83.41104032      12.56520024
F       71.11669042      85.41287867      13.13699361
F       73.02392606      86.38459771      12.99054103
F       74.34816265      88.37885191      12.73772642
F       75.67647720      90.42030545      12.60319683
F       45.47823342      40.81597338      12.50488832
F       46.86945473      43.03779833      12.44076691
F       48.36756921      45.25823094      12.26901084
F       50.31343672      48.33697042      12.34336937
F       51.61926051      50.53103743      12.50719444
F       53.03806347      52.76602801      12.65763075
F       54.42033644      55.04757356      12.68488263
F       55.77943359      57.45437253      12.56858675
F       58.26577611      60.72365012      12.66193482
F       60.12904016      62.67919775      12.53617087
F       61.37731446      64.92372176      12.60248962
F       62.65289855      67.15782066      12.68217104
F       63.96658496      69.40678573      12.73809306
F       65.45262689      71.38217210      12.64454980
F       66.89477362      73.29849417      12.72775039
F       68.21841829      75.44310598      12.59334454
F       69.48051800      77.54822938      12.48182681
F       70.76467844      79.63529609      12.48102377
F       72.21544280      81.62721116      12.55163145
F       73.56351260      83.82804517      12.72132370
F       75.32060889      86.03001099      12.82271093
F       76.96663552      88.16607400      12.68050294
F       78.26732857      90.29608915      12.60300210
F       79.59274703      92.44903350      12.57393647
F       45.32486604      36.36183453      12.53483908
F       46.67170654      38.56517753      12.51541072
F       48.02269240      40.78454705      12.47469656
F       49.42491465      43.06708388      12.39390561
F       51.04826957      46.26335833      12.25747105
F       52.70082273      48.37360012      12.40693941
F       54.10709605      50.55778899      12.52560765
F       55.49425916      52.78260972      12.58387266
F       56.83861351      55.04362296      12.57809388
F       58.12805529      57.32614016      12.51991118
F       59.91331442      59.30276366      12.63737813
F       62.55980561      62.50305208      12.48417514
F       63.86168964      64.80319784      12.67437303
F       65.09147164      67.02383532      12.83699823
F       66.64795295      69.04285579      12.89145853
F       68.11189754      70.97769286      12.72691952
F       69.43845194      73.07750912      12.63863943
F       70.76289269      75.23503595      12.58606534
F       72.06707711      77.37877702      12.55886936
F       73.42380261      79.49091061      12.57541369
F       74.80578302      81.64147936      12.63151174
F       76.26495016      83.79345095      12.69247502
F       77.93598809      85.89680266      12.61686850
F       79.47489555      88.01754047      12.61145024
F       80.83369790      90.18884168      12.58871173
F       82.16593514      92.36779183      12.57148507
F       83.50106428      94.55308936      12.56490405
F       45.20768224      31.90820304      12.55499112
F       46.54441660      34.10305746      12.54472438
F       47.88328032      36.30631503      12.53388570
F       49.22037802      38.50825408      12.51278109
F       50.53019524      40.65117388      12.48847073
F       52.03638614      42.41416625      12.56121901
F       52.42170046      44.54954069      12.51653028
F       53.92891568      46.26845944      12.40890376
F       55.27199769      48.36731268      12.47262909
F       56.64249060      50.55289563      12.51964430
F       57.99712985      52.76557465      12.54013219
F       59.31656774      54.98123023      12.53196909
F       60.66577991      57.12920357      12.51518690
F       62.11298491      59.56712158      12.44825496
F       64.94468682      62.41605038      12.56505226
F       66.42040660      64.58522389      12.80743423
F       67.49540858      66.87465070      13.09776041
F       69.44318479      68.61396552      12.78661695
F       70.71299587      70.77569158      12.66279396
F       72.01626842      72.93954197      12.62101210
F       73.33438837      75.10746627      12.59591242
F       74.67001970      77.26636407      12.59225133
F       76.03543371      79.42000833      12.61190028
F       77.42524999      81.58482550      12.63445350
F       78.86872820      83.68879441      12.73594368
F       80.64704597      85.82555251      12.66592680
F       82.06148345      87.92843175      12.59015221
F       83.39772409      90.10383814      12.57024868
F       84.72955911      92.29471589      12.56458429
F       86.06749460      94.48848249      12.56697440
F       87.42432557      96.69680508      12.58043800
F       46.42368327      29.62375623      12.57353475
F       47.76643555      31.84087683      12.55725786
F       49.10115866      34.04077065      12.55099325
F       50.43492623      36.24399080      12.54758711
F       51.78290134      38.44891526      12.54029605
F       53.33111721      40.58795910      12.47005853
F       55.02939776      43.98308303      12.45188187
F       56.47210928      46.17446327      12.47950519
F       57.84485613      48.34215683      12.50154113
F       59.19527484      50.52411119      12.51662853
F       60.52513479      52.71735261      12.52855392
F       61.83507660      54.91603368      12.54217410
F       63.13629427      57.15887917      12.56576386
F       64.38783122      59.55687938      12.49782307
F       67.28661226      62.16342621      12.69651034
F       68.95008464      63.62663642      12.86013444
F       69.29632460      65.69733723      13.25345448
F       71.16809174      66.45550831      12.65315569
F       72.02798741      68.53934686      12.59823653
F       73.27325918      70.64541373      12.59427751
F       74.57522643      72.82345014      12.59479532
F       75.90968783      75.00908099      12.59321134
F       77.26682341      77.18118349      12.59300918
F       78.64068660      79.33890355      12.59736563
F       80.06368090      81.44845447      12.63611035
F       81.60126437      83.56636970      12.68971116
F       83.32810915      85.67268294      12.58332972
F       84.63265403      87.83726509      12.55384662
F       85.95425998      90.02766643      12.55618503
F       87.28601807      92.22816877      12.56199065
F       88.63158827      94.44705336      12.57397081
F       46.33579339      25.22735196      12.60010345
F       48.97410737      29.57001269      12.57011435
F       50.32563766      31.77816259      12.56178765
F       51.65565340      33.97021480      12.56737181
F       52.97478999      36.17497186      12.58265792
F       54.33501117      38.42937523      12.59339896
F       56.10030464      41.88990739      12.53323741
F       57.65964607      44.01017816      12.55135970
F       59.06347140      46.14692954      12.52390879
F       60.42242067      48.29961695      12.51227920
F       61.75436275      50.47045270      12.51805462
F       63.06596486      52.64927083      12.54167655
F       64.34907749      54.82156662      12.59135085
F       65.58326435      56.95044399      12.67135203
F       66.53271235      59.05692156      12.83934594
F       68.38334905      60.20231346      13.22804954
F       70.13583381      61.70949082      12.72992539
F       71.46112107      63.93542262      12.40577067
F       73.27487352      65.99811987      12.36632053
F       74.48683223      68.27840492      12.50839085
F       75.78972320      70.52067515      12.55867589
F       77.12616504      72.73947063      12.58045808
F       78.48795330      74.93704239      12.57876159
F       79.86714374      77.11572897      12.56086130
F       81.27181356      79.26431651      12.53393554
F       82.71983994      81.38511088      12.51848149
F       84.34764656      83.40498241      12.42449198
F       85.82977192      85.53061882      12.48876458
F       87.16825466      87.75008868      12.53302609
F       88.50377060      89.96511730      12.55406008
F       89.83987846      92.17447865      12.56554411
F       50.19203410      27.32577352      12.57981765
F       51.54847236      29.52055419      12.56561964
F       52.89009335      31.70104280      12.57062564
F       54.20820780      33.86831135      12.59647159
F       55.48210528      35.98454883      12.66599539
F       56.86837079      37.83478153      12.91383741
F       57.32277709      40.01508311      12.88369228
F       58.86421828      41.92131367      12.68911026
F       60.29786903      43.98452796      12.59018112
F       61.66844325      46.09120181      12.52649423
F       63.00066522      48.23610149      12.50648886
F       64.31782934      50.39131347      12.52118913
F       65.61150124      52.55052426      12.57057602
F       66.88959145      54.69672766      12.67139529
F       68.15000518      56.81447149      12.83867392
F       69.79091506      58.48276595      13.29738847
F       71.63810506      59.70533987      12.99213665
F       72.64900282      61.74119611      12.51756294
F       73.98244188      63.75957709      12.21290364
F       75.61199538      65.92716403      12.30096593
F       76.94350180      68.20437887      12.48075049
F       78.30917886      70.46140941      12.55676259
F       79.68143926      72.67896359      12.57337182
F       81.06975922      74.88688696      12.54665902
F       82.48045533      77.06915180      12.49079797
F       83.91416926      79.19984862      12.40620208
F       85.38354113      81.21627856      12.42025553
F       87.00650099      83.27598662      12.40629374
F       88.35002142      85.47198032      12.48824950
F       89.70284190      87.69653748      12.54313966
F       54.12943182      29.44990188      12.56327216
F       55.47290517      31.60970108      12.57855419
F       56.79980310      33.73528853      12.63396403
F       58.15475165      35.78677146      12.75143855
F       59.54788206      37.73189285      13.03569447
F       60.08816398      39.92105166      13.00726077
F       61.53606450      41.87555840      12.69626199
F       62.92385261      43.90735093      12.55631717
F       64.25598058      46.01167424      12.49269383
F       65.57657478      48.15231330      12.48223622
F       66.88807293      50.28014046      12.52244701
F       68.11894337      52.42323683      12.59606983
F       69.49244494      54.45009464      12.72792084
F       70.69673471      56.32879002      13.01393726
F       72.75458273      57.21062414      12.97561375
F       73.91881921      59.34025276      12.67016033
F       75.10866987      61.53622074      12.40192138
F       76.43598529      63.66066994      12.18114624
F       77.99044281      65.86470950      12.37412504
F       79.40523307      68.16620434      12.55676161
F       80.85331898      70.39818750      12.56799586
F       82.22665946      72.63837607      12.56332879
F       83.63752199      74.86532941      12.49536788
F       85.11370918      77.02966382      12.34503239
F       86.57732494      79.03746932      12.21387769
F       88.04849388      81.01510247      12.20762473
F       89.48461035      83.19482786      12.42606879
F       58.08636661      31.50893531      12.56042968
F       59.43682473      33.60970594      12.62626884
F       60.81900351      35.66565566      12.75953313
F       62.25012149      37.63866067      13.01951723
F       62.71518443      39.84697774      12.94876797
F       64.18926444      41.78070411      12.57347459
F       65.51878953      43.80094053      12.45515344
F       66.75284015      45.90769535      12.43574124
F       68.19718776      48.00830189      12.44216075
F       69.48146053      49.98050183      12.47082082
F       70.42694323      51.99586121      12.73954211
F       72.50101957      52.72323718      12.79182048
F       73.58210609      54.72692380      12.71765457
F       75.04474839      56.89080225      12.67772138
F       76.31399725      59.16577802      12.54228275
F       77.56800878      61.38902919      12.37624594
F       78.88394708      63.53799869      12.29856428
F       80.42546573      65.79257867      12.58796516
F       81.93108210      68.10512968      12.65034738
F       83.35444317      70.32191313      12.60362743
F       84.72368362      72.61161346      12.60660795
F       86.17798983      74.87411286      12.44726297
F       87.76475564      76.88446607      12.07647530
F       89.11281917      78.83957022      12.12374281
F       63.44262386      35.54394975      12.66703279
F       64.95524424      37.43839774      12.89719049
F       65.04607284      39.65693384      12.93939447
F       67.18450134      39.69726974      12.58310889
F       66.73644406      41.77999843      12.41621058
F       68.19991798      43.41708600      12.32325830
F       68.99578123      45.46903971      12.54865746
F       71.04149725      46.19292910      12.57609482
F       71.95899441      48.22938365      12.44879091
F       73.30417438      50.17892155      12.55172032
F       74.81796841      52.34349703      12.63441693
F       76.14164974      54.57518157      12.63531125
F       77.48925542      56.81014482      12.58059460
F       78.77873764      59.03573649      12.50327631
F       80.05549364      61.20487774      12.44813695
F       81.39170886      63.28813464      12.51312730
F       82.87088728      65.51496017      12.58775061
F       84.30841731      67.83692648      12.53324274
F       85.79992369      70.15557610      12.71650652
F       87.27247713      72.51292683      12.68342857
F       88.73442157      74.71437261      12.48708890
F       67.64905208      37.51073183      12.53634339
F       69.34148294      39.47609291      12.40986498
F       70.41761603      41.57557676      12.36317707
F       71.78938769      43.59070111      12.45100972
F       73.31871965      45.75424930      12.51105857
F       74.58453471      47.93816221      12.53984149
F       75.94969054      50.09265378      12.57214190
F       77.32609382      52.29476393      12.59187455
F       78.67330465      54.51028874      12.58237288
F       79.99929474      56.72013471      12.54980252
F       81.30729691      58.90974194      12.52028689
F       82.63345167      61.07019294      12.51660658
F       83.99168398      63.24718384      12.53577714
F       85.36370368      65.44857267      12.54438082
F       86.75192297      67.57215323      12.59800060
F       88.22517402      69.79244801      12.63504522
F       89.67848199      72.02938858      12.54433793
F       71.77613276      39.28150111      12.55298123
F       73.10382058      41.38551655      12.51868601
F       74.46854945      43.51031044      12.52135411
F       75.83009065      45.68135436      12.53609762
F       77.17531542      47.85838359      12.55627359
F       78.53142584      50.04265148      12.57015022
F       79.88279300      52.23934720      12.57254293
F       81.22270296      54.43712523      12.56237065
F       82.54793021      56.63094516      12.54667972
F       83.87256811      58.81775689      12.53589869
F       85.21029935      60.99799059      12.53535274
F       86.56257025      63.17990076      12.54056125
F       87.93613713      65.35746305      12.54095655
F       89.33093279      67.55394982      12.52264883
F       75.72288697      41.28562313      12.56211665
F       77.06514248      43.44039205      12.55209104
F       78.40773411      45.61463163      12.55512997
F       79.75636645      47.79661041      12.56226329
F       81.10273365      49.98397051      12.56716598
F       82.44908468      52.17011791      12.56595478
F       83.78537958      54.36396400      12.55865053
F       85.10922737      56.55562089      12.54935871
F       86.44216596      58.74182359      12.54260715
F       87.78322042      60.92966355      12.53900990
F       89.13587181      63.12267120      12.53027048
F       79.64588341      43.36790311      12.56323768
F       80.98696430      45.55002164      12.56209848
F       82.33210549      47.73661992      12.56686793
F       83.69426030      49.91663633      12.57351730
F       85.02954541      52.09429643      12.57659285
F       86.35439867      54.27643461      12.56534350
F       87.67159277      56.48060558      12.55304030
F       89.00785341      58.67441810      12.54391004
F       83.55646471      45.48564088      12.56759536
F       84.92443421      47.68007835      12.57982268
F       88.90397514      54.19813250      12.57205574
F       88.77262624      49.80185934      12.59884012
F       45.34823813      45.20245757       7.12324491
F       71.95207811      38.95828528       7.24436336
F       46.27157276      74.26690961       7.19877763
F       46.16504871      69.87890613       7.22102494
F       46.06623490      65.40999887       7.23524717
F       47.39586565      67.60197198       7.23896726
F       48.71687217      69.80707113       7.23227426
F       50.03507432      71.99083267       7.22556199
F       51.36171791      74.16285731       7.22408327
F       52.70100566      76.33399981       7.22750364
F       54.05688781      78.52292303       7.23199833
F       46.03261708      60.98634401       7.21702324
F       47.31952469      63.14325569       7.24781529
F       48.62807226      65.33213687       7.25093806
F       49.95513758      67.52412557       7.24825905
F       51.28304226      69.71684374       7.24457743
F       52.62023563      71.90155483       7.24262690
F       53.95263726      74.08706557       7.24036013
F       55.28915586      76.27044976       7.23583032
F       56.61642775      78.46606580       7.22699230
F       57.94171946      80.68481818       7.21906373
F       46.21941564      56.61432305       7.12745753
F       47.37303664      58.72061787       7.25533509
F       48.60173472      60.86121523       7.29434150
F       49.86847388      63.05321398       7.27733090
F       51.18370388      65.25758409       7.26171906
F       52.51476351      67.45687472       7.25501058
F       53.85086256      69.64825213       7.25370766
F       55.18918810      71.83279551       7.25289361
F       56.52473032      74.01388161       7.24662471
F       57.85210791      76.19756892       7.23024612
F       59.15210500      78.39664278       7.20114632
F       60.44715877      80.64539731       7.16365386
F       61.77311958      82.92826438       7.17134902
F       46.15573171      52.15111659       7.06769250
F       47.54656067      54.24458705       7.28005493
F       48.70957177      56.42159924       7.39569646
F       49.92093439      58.56696957       7.42137187
F       51.11653451      60.75604083       7.34948084
F       52.40278988      62.99424430       7.28101117
F       53.74091830      65.19759844       7.26226499
F       55.08016995      67.39555122       7.25860780
F       56.42422037      69.58244604       7.26277891
F       57.76635381      71.76126312       7.26373226
F       59.09909830      73.93808955       7.25003083
F       60.41982465      76.10865478       7.21495999
F       61.62092198      78.31778495       7.13162250
F       62.90558799      80.66976023       7.04617931
F       64.25008137      82.97307188       7.03808470
F       65.57202350      85.24257955       7.13058501
F       46.55409878      47.46971256       6.99018369
F       47.12219347      50.11459996       6.93748345
F       48.74457075      52.05587399       7.39184720
F       49.96551346      54.26885370       7.58471420
F       51.21428174      56.38314689       7.61647157
F       52.44006195      58.50565201       7.49905351
F       53.59148020      60.74742301       7.28449046
F       54.96840924      62.95323669       7.26184059
F       56.30743313      65.14891387       7.25705645
F       57.65621151      67.34116226       7.26734720
F       59.00578779      69.51756656       7.28220725
F       60.34145354      71.68896326       7.28483685
F       61.68260980      73.87330452       7.25732186
F       63.05153835      76.02729639       7.20421893
F       63.92733104      78.47769223       6.88378045
F       65.29541557      80.78392541       6.76192336
F       66.68394741      83.10400504       6.77810057
F       67.98415480      85.48460477       6.90042729
F       69.50716036      87.70773027       7.26127436
F       45.38345430      40.76760081       7.17751630
F       46.66960676      42.90911733       7.11544690
F       47.88078846      45.02987890       6.96061968
F       49.06040384      47.12980184       6.69985748
F       49.04921442      49.28136879       6.54416339
F       50.70199795      50.44181797       7.14446217
F       51.46146676      52.45947521       7.43129730
F       52.67051382      54.46081940       7.49665188
F       53.90913307      56.49225611       7.42349274
F       55.17033608      58.57646013       7.20965259
F       56.26460521      60.78094049       7.20986712
F       57.56200326      62.91056468       7.25323688
F       58.88185631      65.12047481       7.25666112
F       60.24827243      67.29345056       7.29272964
F       61.60306526      69.44746903       7.32292138
F       62.85217761      71.62578883       7.30914718
F       64.31948650      74.01245275       7.32755935
F       66.00511500      77.67581077       6.91392556
F       67.42725336      80.04935855       6.79035704
F       68.79104479      82.29586613       6.84884982
F       69.89669228      84.35661868       6.85822329
F       71.09135256      86.13067908       7.21450885
F       72.07645283      88.06227590       7.38775273
F       45.31588447      36.33541572       7.20570004
F       46.64456948      38.51147899       7.18699446
F       47.96267168      40.66652332       7.14812053
F       49.27149306      42.79162882       7.05952485
F       50.42135038      45.24112007       6.90615936
F       51.57845860      47.82150153       7.01100091
F       52.91887580      50.03284824       7.19938130
F       54.03443714      52.23954972       7.28922695
F       55.30579872      54.34296242       7.31686729
F       56.61001772      56.43116522       7.24085614
F       57.92980857      58.58564788       7.14727035
F       58.99502642      60.72783522       7.26437496
F       60.09904363      62.92373386       7.19961707
F       61.48369662      65.09959210       7.27496882
F       62.86945273      67.25581184       7.35685102
F       64.28120587      69.38611373       7.40371230
F       65.15041607      71.93377116       7.23639887
F       66.91609911      75.63142506       7.26438044
F       68.44278642      77.93564527       7.10850755
F       69.85469358      80.20442775       7.10135580
F       71.21524344      82.48420216       7.22414316
F       72.59731378      84.62382972       7.38140714
F       74.42384861      87.82642021       7.43444061
F       75.72235553      90.18559327       7.27893165
F       45.21130800      31.89326880       7.21714770
F       46.54944634      34.08045794       7.21535329
F       47.88944695      36.26403741       7.20496267
F       49.22805707      38.44039878       7.18570787
F       50.55163440      40.63396027       7.16255131
F       51.73717297      42.96739711       7.15306808
F       52.84098013      45.42034096       7.07069834
F       54.08326091      47.71451958       7.13482387
F       55.36361237      49.93546998       7.20334029
F       56.62484080      52.11662878       7.23894189
F       57.94268042      54.26476006       7.24085516
F       59.27059669      56.43577005       7.22962186
F       60.56420092      58.57773832       7.19399026
F       61.75196161      60.72186227       7.08111114
F       62.76346629      62.95581828       7.16257242
F       64.08708886      65.09211449       7.35792815
F       65.54748756      67.30870296       7.52860707
F       67.15296346      71.09825032       7.28108759
F       68.09273821      73.59580570       7.34573597
F       69.54324845      75.79010750       7.24625812
F       70.95378941      78.01973807       7.20743667
F       72.31441187      80.26705927       7.24130058
F       73.63362994      82.50417449       7.34246429
F       74.76662362      84.96428005       7.47435940
F       76.86087407      87.88464818       7.34660794
F       78.24766381      90.17837542       7.27626352
F       79.59842860      92.39707289       7.24552656
F       46.42839784      29.61285274       7.21089948
F       47.77599653      31.82753029       7.22103714
F       49.12117242      34.01987914       7.22179068
F       50.47056470      36.20569282       7.21881655
F       51.80844476      38.38530429       7.20789482
F       53.04960137      40.59260657       7.14421309
F       54.12942059      43.13836143       7.06986747
F       55.32458907      45.39462075       7.15897840
F       56.60801093      47.63448706       7.17660570
F       57.89956795      49.84664073       7.20282246
F       59.21374135      52.03462807       7.21715967
F       60.54998153      54.21351532       7.22424590
F       61.89749355      56.37314597       7.23428890
F       63.23045456      58.48479482       7.19100971
F       64.53111181      60.67896394       7.11418906
F       65.43104338      62.96211785       7.25327969
F       66.50907121      65.16775714       7.51284973
F       67.84678297      69.01448022       7.54014682
F       69.41474279      71.43101701       7.38871408
F       70.71629955      73.61793697       7.31811263
F       72.09982159      75.80923396       7.27370900
F       73.46705259      78.02726537       7.27112352
F       74.80483150      80.24357349       7.30492390
F       76.07285322      82.39699873       7.36187646
F       76.92196489      84.51884057       7.24896022
F       78.64038011      85.84398925       7.22152283
F       79.50808012      87.99463532       7.28655906
F       80.81008475      90.14337493       7.26151999
F       82.15324719      92.34442296       7.24248761
F       83.49904532      94.54565674       7.23551907
F       46.33917015      25.22114871       7.19724150
F       48.98129914      29.56402143       7.22024191
F       50.34310256      31.77588392       7.23027523
F       51.69784926      33.97024830       7.23877825
F       53.05595230      36.15377945       7.25472391
F       54.41419796      38.30340188       7.25562011
F       55.50959522      40.75708482       7.17357956
F       56.64907153      43.08588151       7.20427329
F       57.85551880      45.33579886       7.21155247
F       59.14424189      47.56471269       7.20170536
F       60.45954021      49.78097921       7.20440640
F       61.79857577      51.98543519       7.21885613
F       63.15791170      54.18098597       7.25095867
F       64.53364259      56.34921910       7.30224979
F       65.92003905      58.47805889       7.35035466
F       67.17356671      60.71178416       7.31052871
F       68.04014632      62.96265841       7.40216217
F       68.66595419      65.17485757       7.33025360
F       69.18941977      67.27173157       7.45424849
F       70.51610680      69.25689031       7.39067844
F       71.90651447      71.41970023       7.32498873
F       73.28198937      73.59416617       7.29607666
F       74.64541890      75.78202095       7.28533856
F       75.99160124      77.98183282       7.29112887
F       77.31949008      80.19068812       7.31538148
F       78.62106652      82.46977796       7.35545693
F       80.84872990      85.50911707       7.34882673
F       82.02934690      87.87225383       7.25777612
F       83.36867554      90.09142216       7.24134399
F       84.71784455      92.29264530       7.23535427
F       86.06562729      94.48843949       7.23074960
F       87.42531183      96.69629436       7.21779481
F       50.19477501      27.32073834       7.21752725
F       51.55347486      29.52500552       7.23178331
F       52.90928524      31.72729429       7.24188817
F       54.27348712      33.93951872       7.27047069
F       55.64834566      36.16393223       7.34867346
F       56.93607205      38.43223815       7.50135326
F       57.94185011      40.71297626       7.42353643
F       59.10215029      43.00314831       7.31579100
F       60.36387503      45.26744794       7.23874842
F       61.68239751      47.51454501       7.20536642
F       63.02045875      49.74170404       7.20460854
F       64.37699577      51.96110879       7.23675639
F       65.75643884      54.18117719       7.30681970
F       67.15266084      56.41414590       7.45258525
F       68.46976086      58.71943922       7.72114231
F       69.60276952      60.92009106       7.50882488
F       70.71714367      62.86116582       7.06180943
F       70.79366122      65.08008302       6.97667701
F       71.74093203      67.17743948       7.29042340
F       73.11384905      69.25232265       7.27201016
F       74.48600517      71.38432571       7.27797349
F       75.84753591      73.54390205       7.28098923
F       77.19159799      75.72227468       7.27956311
F       78.51663694      77.91815622       7.27642857
F       79.81845108      80.13711803       7.27517066
F       80.97454574      82.47782042       7.32679683
F       83.21623817      85.58061378       7.24589728
F       84.57982848      87.84927403       7.22547568
F       85.93925467      90.04468238       7.22746733
F       87.28573185      92.23604418       7.23045154
F       88.63591685      94.44908388       7.22410019
F       54.11602342      29.47453335       7.23407268
F       55.46549065      31.69780758       7.25098794
F       56.82308912      33.94621664       7.31216954
F       58.15513285      36.22200210       7.45661707
F       59.39198112      38.42909341       7.65795202
F       60.31457030      40.65557410       7.53260791
F       61.55203921      42.94874431       7.31659401
F       62.87420617      45.26038076       7.22220406
F       64.23230763      47.49224199       7.18571744
F       65.57837831      49.72428463       7.20025206
F       66.94396790      51.97451958       7.26368213
F       68.32415123      54.22869211       7.39141556
F       69.63339450      56.55348184       7.58373992
F       70.84350919      58.79033620       7.67387478
F       72.11921518      60.90817255       7.31764657
F       73.42024466      62.93946965       6.88473433
F       73.11432894      65.17572031       6.92929272
F       74.38814136      67.15581858       7.13998706
F       75.73534247      69.20964948       7.21374512
F       77.07964677      71.32092821       7.25748557
F       78.41140214      73.47024484       7.26906380
F       79.73344009      75.64111292       7.25594115
F       81.03227896      77.83257908       7.22704165
F       82.28646947      80.00754444       7.20154782
F       83.18036994      82.17790276       7.05807552
F       84.91710794      83.52497720       7.00579712
F       85.85587266      85.67699377       7.16320064
F       87.17640780      87.80989203       7.20574300
F       88.51769656      89.98721289       7.22507460
F       89.85259188      92.18008775       7.23166272
F       57.99320710      31.68007145       7.23691511
F       59.33189771      33.95559797       7.31474930
F       60.63671294      36.22269975       7.48186333
F       61.84905847      38.37984714       7.66893969
F       62.64360001      40.59116743       7.50197060
F       64.01245131      43.08591266       7.24598630
F       65.43052591      45.25366045       7.16610598
F       66.80484736      47.48436828       7.16316419
F       68.12251251      49.77427512       7.16150731
F       69.51113283      52.03943005       7.27913615
F       70.81525266      54.36818076       7.37736208
F       72.09288800      56.71553946       7.58999285
F       73.38816122      58.83043418       7.41667171
F       74.75843435      60.92496353       7.14019601
F       76.13660475      62.91995158       6.81335304
F       75.72794559      65.13619077       6.83046721
F       77.05462055      67.07824700       7.11273515
F       78.36399462      69.11137739       7.21952388
F       79.65668017      71.22635117       7.26564864
F       80.96902486      73.37690665       7.25544360
F       82.25433973      75.53956479       7.20626682
F       83.52853867      77.74097637       7.12622236
F       84.73428829      80.06085611       7.06969678
F       87.18673740      83.34528241       7.07996300
F       88.44867140      85.57727972       7.16230630
F       89.76840711      87.73871102       7.21524464
F       61.81931652      33.95908560       7.25255257
F       63.11284690      36.21778947       7.41645299
F       64.33831637      38.43110925       7.52227147
F       64.75945145      40.95544606       7.23241752
F       66.59257886      43.02342755       7.07629402
F       68.02992242      45.31100380       7.10514267
F       69.35541262      47.55459218       7.06167398
F       70.73587288      49.91596280       7.10790647
F       72.09112640      52.31011169       7.37312562
F       73.42607195      54.61316774       7.39132383
F       74.70308110      56.73845839       7.37154877
F       76.06166316      58.83903629       7.23802201
F       77.44954458      60.92748916       7.08616927
F       78.83894389      62.90100631       6.89059476
F       78.49336592      65.10042637       6.91146525
F       79.81371330      66.91322104       7.22903100
F       80.98089912      68.95531426       7.27770655
F       82.19303287      71.19351936       7.28243080
F       83.55900334      73.25226813       7.23185381
F       84.71221655      75.42049485       7.12626562
F       85.99130149      77.64997656       6.95894370
F       86.96582141      80.05248124       6.78368034
F       88.82347176      81.30208321       6.82200382
F       89.79802026      83.39908107       7.11989617
F       65.55332604      36.15746982       7.29126151
F       66.76139892      38.04254104       7.08480985
F       66.59541174      40.10818690       6.66062413
F       68.44679620      41.18250589       6.80707668
F       69.39568518      43.30384827       6.97490676
F       70.70349355      45.57267838       7.18074916
F       72.11527381      47.88823186       7.13169083
F       73.44222439      50.22289908       7.21428789
F       74.68086756      52.40103175       7.30885300
F       75.99966487      54.54948926       7.30936805
F       77.34197642      56.68741773       7.25899886
F       78.72333519      58.82718342       7.18262850
F       80.14809879      60.99453891       7.13056067
F       81.41513397      63.36756962       7.17424894
F       82.52762066      65.46928695       7.26678011
F       83.90904990      67.22673857       7.13568289
F       83.61003946      69.38170808       7.16023957
F       85.02608770      71.08559856       7.34936271
F       86.25232051      73.00168408       7.29979458
F       86.99671864      75.07444656       6.95827169
F       88.96323885      76.00695771       6.56956806
F       88.28313638      78.12250642       6.50022913
F       90.31260684      79.01022683       6.80548092
F       69.37685439      38.85727914       7.12889733
F       70.84049086      41.21214038       7.05989127
F       72.08315218      43.52676075       7.11711471
F       73.31994316      45.71394585       7.18616740
F       74.64915999      47.93465745       7.20746540
F       75.96827962      50.14353791       7.24377096
F       77.27144233      52.32037902       7.26459146
F       78.60229503      54.47811657       7.25447787
F       79.95761135      56.63964315       7.22262161
F       81.32694210      58.82213600       7.19438955
F       82.67065488      61.05415504       7.18818296
F       83.97451362      63.25822914       7.20293992
F       85.33421058      65.38971493       7.21863933
F       86.56283243      67.73008511       7.26144681
F       87.73436771      69.86717497       7.31344251
F       88.95586345      71.91733980       7.23256536
F       90.01494415      74.02133167       7.10110726
F       73.27603942      41.21957895       7.19442083
F       74.57808551      43.46292833       7.19461553
F       75.88109348      45.67650548       7.20890588
F       77.20151107      47.87604028       7.22736889
F       78.52528016      50.06449025       7.24143252
F       79.85667669      52.23964543       7.24355744
F       81.19740967      54.41038442       7.23314333
F       82.54340545      56.59185201       7.21802828
F       83.88672713      58.78944602       7.20725003
F       85.21788893      60.99158965       7.20628374
F       86.54342592      63.18360831       7.21299333
F       87.85416702      65.38302707       7.21326402
F       89.12548184      67.56007105       7.19512803
F       75.77761830      41.18508032       7.23522788
F       77.10569739      43.40741504       7.22368113
F       78.43424765      45.61260244       7.22613251
F       79.76446429      47.80532487       7.23303326
F       81.09627481      49.98848580       7.23562687
F       82.43747271      52.16248527       7.23207338
F       83.77836726      54.34571518       7.22482721
F       85.11102171      56.53481615       7.21785490
F       86.44614971      58.72731796       7.21333046
F       87.77570169      60.92123379       7.20989249
F       89.09999358      63.10560638       7.20166681
F       79.65590310      43.34949664       7.23410680
F       80.99430245      45.54768265       7.23271351
F       82.33315516      47.73816480       7.23064313
F       83.69020527      49.91410316       7.22364669
F       85.02512809      52.08522184       7.21431916
F       86.35365277      54.26253601       7.21549108
F       87.67329768      56.46572208       7.21681045
F       89.00760955      58.65813576       7.21450697
F       83.55722787      45.48423887       7.22974907
F       84.92432772      47.67897278       7.21717950
F       88.90586320      54.18600826       7.20942115
F       88.77448505      49.79609050       7.19597142
C       46.92955806     107.72338466      11.01262743
C       47.07321438     109.21737297      10.57920104
C       46.62078808     103.33542894      10.91826838
C       46.80655712     104.79167796      10.40554686
C       61.96844156      84.21759390      10.67474873
C       63.30909495      84.86035352      11.17462722
C       65.91758779      86.25236619      10.64958477
C       67.28475678      86.81406800      11.14147922
C       47.55158980     125.53991289      11.21585955
C       47.44000990     121.13254485      11.20214994
C       47.47831258     122.61303933      10.70958182
C       48.76662425     123.31615389      11.16689344
C       48.80470913     124.77977040      10.71629715
C       50.09584139     125.48651664      11.16851119
C       50.13588792     126.95765807      10.71516417
C       51.42126127     127.65898723      11.16470492
C       47.32143013     116.65745374      11.18598105
C       47.36425170     118.14735761      10.68380097
C       48.66047141     118.86122815      11.19378468
C       48.69569166     120.35706513      10.69607801
C       49.98939193     121.06186837      11.20105346
C       50.02090177     122.54549560      10.70587388
C       51.31264975     123.24746861      11.20658102
C       51.34675979     124.72158441      10.70896925
C       52.64359687     125.42446519      11.20509818
C       52.67913093     126.89365263      10.70319088
C       53.98652786     127.59803393      11.19631413
C       54.02313229     129.06979383      10.69127382
C       55.34141918     129.78050047      11.18683714
C       47.17534568     112.18779760      11.16142006
C       47.24040552     113.68060946      10.67030017
C       48.53544604     114.39857283      11.19695755
C       48.58535792     115.88365257      10.68947871
C       49.88337962     116.59813883      11.20115943
C       49.92383611     118.08301418      10.69295545
C       51.22139698     118.79151747      11.20106747
C       51.25294175     120.27956845      10.69671019
C       52.55228639     120.98293874      11.20116464
C       52.57934869     122.46876363      10.69945421
C       53.88539691     123.16990740      11.20079458
C       53.91382391     124.65173501      10.69769142
C       55.22474284     125.35428537      11.19693031
C       55.25874978     126.83053330      10.68998431
C       56.57284422     127.53768252      11.18862597
C       56.61145553     129.01295221      10.67921901
C       57.92526245     129.72172883      11.17722711
C       57.96303603     131.19875812      10.67231816
C       59.28016554     131.89971977      11.16843333
C       48.34827834     109.93031175      11.18670010
C       48.44791321     111.42138318      10.69216115
C       49.73720352     112.14800636      11.23892030
C       49.80453544     113.62583936      10.71504361
C       51.10434179     114.34511798      11.22561272
C       51.15017184     115.82151428      10.70644633
C       52.45173105     116.53037047      11.21192368
C       52.48846155     118.01289716      10.70034383
C       53.78754994     118.72007816      11.20561418
C       53.82102398     120.20418154      10.69802855
C       55.12090048     120.91030727      11.20434397
C       55.15528912     122.39274477      10.69706183
C       56.45789489     123.09983737      11.20351245
C       56.49501999     124.57941048      10.69395917
C       57.80178284     125.28897237      11.19715335
C       57.84161825     126.76575047      10.68390134
C       59.15344768     127.47711998      11.18033306
C       59.19321867     128.95209366      10.66525339
C       60.51425092     129.65976390      11.14896784
C       60.54760898     131.13377308      10.63779938
C       61.87919385     131.82534499      11.10846114
C       61.89950947     133.30722163      10.62875184
C       63.23612384     133.97234484      11.10824604
C       48.05198088     105.46801682      11.12222578
C       48.23865276     106.95312762      10.64287826
C       49.47936108     107.66375758      11.29597893
C       49.62983929     109.15638832      10.77285989
C       50.89223538     109.88750168      11.34499902
C       51.01310041     111.36740157      10.79149857
C       52.31245571     112.10135858      11.29474730
C       52.37340612     113.56441404      10.73923024
C       53.67992043     114.26866406      11.23101137
C       53.71923454     115.74911850      10.71272507
C       55.01926203     116.45590714      11.21277254
C       55.05409242     117.94062144      10.70367744
C       56.35230470     118.64796195      11.20906583
C       56.38804559     120.13265549      10.70374363
C       57.68637405     120.84066493      11.21326114
C       57.72590701     122.32372613      10.70529087
C       59.02656251     123.03450770      11.21406110
C       59.06939487     124.51391794      10.69916595
C       60.37510861     125.22644862      11.20033925
C       60.41896750     126.70212997      10.67722459
C       61.73285585     127.41353468      11.16470307
C       61.77655061     128.88429269      10.62760874
C       63.11109217     129.58633842      11.07211139
C       63.13562576     131.05283973      10.54251097
C       64.48418436     131.70823994      10.96620258
C       64.48919878     133.20959149      10.50217400
C       65.83216096     133.84413079      10.94300611
C       65.83899034     135.36561021      10.54147985
C       67.18580267     135.97544574      11.01106104
C       47.42321107     100.95104819      11.02341389
C       47.90767121     102.45850135      10.58049599
C       49.06112301     103.11352365      11.41856706
C       49.35708204     104.63495584      10.85001986
C       50.52221570     105.31897810      11.58080141
C       50.76712933     106.85307431      10.98471377
C       51.94561687     107.55824524      11.65568840
C       52.16882968     109.07729596      10.98941877
C       53.37041492     109.81060650      11.58189177
C       53.57227932     111.28513014      10.84873908
C       54.88445008     111.97268980      11.24570464
C       54.93892345     113.47368285      10.72569436
C       56.23891860     114.17665076      11.21523583
C       56.28189704     115.67178999      10.70621287
C       57.57963168     116.38098677      11.20638331
C       57.61632352     117.86952192      10.70499832
C       58.91207767     118.57490507      11.21744870
C       58.95225968     120.06313947      10.71573796
C       60.24662655     120.77211801      11.23218547
C       60.29285637     122.25630194      10.72224886
C       61.59182478     122.96700700      11.23367747
C       61.64022489     124.44529478      10.70957765
C       62.94420572     125.14885241      11.21137149
C       62.99463498     126.62315697      10.67699579
C       64.30219353     127.32043433      11.16866032
C       64.35626810     128.77481792      10.53544914
C       65.70499950     129.36975374      10.92155563
C       65.71969445     130.89368149      10.34335799
C       67.04168642     131.47972203      10.76354492
C       67.06051114     133.05294673      10.27616979
C       68.37587100     133.61318860      10.75128232
C       68.42588631     135.21031739      10.34081485
C       69.75291932     135.72729529      10.88453540
C       69.83832664     137.29454968      10.57305336
C       71.18346029     137.69968643      11.43836348
C       71.64174202     138.92751642      10.74991040
C       72.91636946     139.63519330      11.28640774
C       46.96106622      96.50281126      11.06125540
C       47.00740347      97.97279282      10.52421254
C       48.40244818      98.61396898      10.91957445
C       48.48857979     100.08012381      10.45463406
C       49.93433955     100.61785174      11.19339534
C       50.29928088     102.15842903      11.48809593
C       51.51395814     102.75361502      10.78839443
C       51.73361588     104.27841787      11.55040058
C       52.92452285     104.98216254      10.95250311
C       53.13757600     106.50382047      11.64323365
C       54.30247629     107.20542215      10.96971191
C       54.56451604     108.79139314      11.56437283
C       55.70233209     109.42532470      10.75195015
C       56.07030854     111.16285177      10.63498674
C       57.35880448     111.82262128      11.15835857
C       57.48381364     113.37917689      10.69998881
C       58.78513494     114.10460563      11.20368768
C       58.83720738     115.59963244      10.69346803
C       60.13404437     116.29773488      11.20586196
C       60.17572017     117.79559190      10.71581279
C       61.46260176     118.49843379      11.24179012
C       61.51175423     119.99144285      10.74338887
C       62.79965155     120.69688169      11.27172547
C       62.85718631     122.17874578      10.75239443
C       64.15823481     122.87263982      11.25691695
C       64.20733601     124.34211231      10.73514513
C       65.49848708     124.98071829      11.27795894
C       65.55102423     126.45714849      10.75243765
C       66.90439051     126.94398234      11.25340302
C       66.97233596     128.30139062      10.55287783
C       68.24075995     128.99176810      10.99994088
C       68.26657220     130.40659830      10.34182958
C       69.53657786     131.08946038      10.89431130
C       69.59483383     132.55501898      10.31738314
C       70.85123042     133.21048466      10.94461653
C       70.96998712     134.74280168      10.47668384
C       72.29470761     135.21502184      11.32193568
C       72.45992588     136.75434576      11.78253769
C       73.98537564     137.45695263      11.67440056
C       74.20194816     138.80282748      10.94152458
C       75.55527869     139.52021219      11.36883147
C       75.62723488     140.92415115      10.74343692
C       76.94304412     141.62213013      11.22557242
C       46.74582029      92.06221816      11.12649760
C       46.79230744      93.54075684      10.60574690
C       48.12772021      94.26015813      11.06227666
C       48.18548746      95.72509961      10.50848944
C       49.58361433      96.43071328      10.89788530
C       49.61407345      97.85190349      10.27706944
C       51.21688249      98.38021135      10.27624931
C       51.33912088      99.78630811      11.00243112
C       52.68113061     100.48914054      10.51758732
C       52.78756320     101.93509407      11.14668069
C       54.08771356     102.66608005      10.68875546
C       54.19100955     104.14339901      11.29584164
C       55.45595041     104.87581650      10.77053027
C       55.56899353     106.38550389      11.31967764
C       56.81661570     107.10512937      10.74376381
C       56.95572997     108.66693141      11.20285671
C       58.19698147     109.32706551      10.58568661
C       58.58359681     111.07050164      10.61419285
C       59.77158554     111.75911505      11.33899589
C       60.02830449     113.30341312      10.70795595
C       61.33549453     113.98532893      11.15962267
C       61.38921688     115.51276875      10.69269593
C       62.67182048     116.20309183      11.22327968
C       62.72534094     117.71592420      10.75076019
C       63.99898883     118.40873829      11.30470965
C       64.06793010     119.90479149      10.80819745
C       65.34448414     120.59080516      11.36612151
C       65.42245164     122.05339668      10.77611731
C       66.74393108     122.61167842      11.26410546
C       66.78466055     124.12358174      10.80451334
C       68.13578815     124.56224419      11.35470118
C       68.19553788     125.96010803      10.78998302
C       69.48984398     126.64354411      11.21733953
C       69.51227363     128.07194304      10.60822217
C       70.79746020     128.76601613      11.10615343
C       70.83695236     130.21753208      10.53960257
C       72.11506930     130.90281858      11.10669504
C       72.18075755     132.36981059      10.59378805
C       73.50355416     133.01122476      11.18342425
C       73.57386836     134.51060988      10.75889369
C       74.91775653     135.15071565      11.34207045
C       75.02625894     136.62976432      10.97044723
C       76.53859884     137.28625472      11.45492419
C       76.80010403     138.69294812      10.89772849
C       78.15990645     139.36793531      11.30734756
C       78.21115253     140.81484341      10.74636002
C       79.52653921     141.51831494      11.22492482
C       79.56575535     142.98525068      10.69627144
C       80.87122185     143.69079426      11.19543374
C       46.60637079      87.60945817      11.15618126
C       46.64614754      89.09118358      10.64328163
C       47.95269186      89.80665834      11.13694963
C       47.99598402      91.28550744      10.61449567
C       49.31014604      92.00524321      11.09665268
C       49.36476150      93.47642724      10.55586940
C       50.70820135      94.20040748      11.01944193
C       50.78960235      95.60522033      10.36917703
C       52.47147468      96.13114929      10.41125665
C       52.45064356      97.57670491      10.89502436
C       53.89133421      98.23942766      10.49553367
C       53.94704167      99.69546671      11.03423713
C       55.28904810     100.41051685      10.59345108
C       55.34555991     101.87458106      11.15220553
C       56.64625803     102.60821953      10.66364228
C       56.71629259     104.08570514      11.21018231
C       57.99633590     104.81573888      10.68856963
C       58.06972399     106.31608645      11.20239317
C       59.33959316     107.03006354      10.66453844
C       59.41715613     108.55685751      11.14285365
C       60.69617342     109.26450393      10.65870244
C       60.96279677     110.78816129      11.31851890
C       62.13206401     111.47202406      10.57221082
C       62.52955466     113.21482022      10.54485369
C       63.82296394     113.86066336      11.11236244
C       63.92054273     115.41621192      10.71329257
C       65.19251422     116.09164596      11.29537032
C       65.26445095     117.61149134      10.84590857
C       66.51365544     118.25726316      11.46833922
C       66.60960771     119.74306777      10.97519257
C       67.95952967     120.22318180      11.52476897
C       68.06075203     121.57977499      10.87892778
C       69.37187319     122.20426873      11.34851804
C       69.37830400     123.62828898      10.79687179
C       70.70511374     124.30909409      11.26111904
C       70.74445540     125.77299020      10.72988116
C       72.04729474     126.46438447      11.20892961
C       72.07757748     127.93152448      10.66710585
C       73.37325366     128.62614306      11.18195419
C       73.41538494     130.09670475      10.66548539
C       74.72520596     130.77589683      11.19943716
C       74.78258617     132.24907270      10.70777659
C       76.10349976     132.93042919      11.25410205
C       76.17360066     134.41362710      10.80233084
C       77.55147400     135.07032704      11.31377494
C       77.67205721     136.51589628      10.83164546
C       79.21283273     137.14576242      11.23611834
C       79.39536135     138.56690308      10.73963166
C       80.73118806     139.25716972      11.23299251
C       80.78677020     140.72710257      10.72084492
C       82.09926672     141.43081528      11.21031035
C       82.13745228     142.90845363      10.69500875
C       83.44252159     143.61648441      11.19284381
C       83.47988373     145.09727437      10.68290513
C       84.78422689     145.80716238      11.18614483
C       46.49093993      83.14733703      11.17539925
C       46.52858955      84.63375534      10.66305421
C       47.82817177      85.34877688      11.16598667
C       47.86775974      86.83234326      10.65410883
C       49.16890065      87.54804261      11.15528400
C       49.21138604      89.02807111      10.63649024
C       50.51490024      89.74551062      11.13468675
C       50.56461609      91.21955649      10.60309153
C       51.87945630      91.92718781      11.11326534
C       51.95527928      93.39699655      10.59609269
C       53.40756561      93.95705415      11.23544419
C       53.64281644      95.47621792      11.19957881
C       55.10865364      95.99741545      10.56164484
C       55.16781447      97.47934457      11.03694790
C       56.50955270      98.17650234      10.56805735
C       56.54873914      99.64142072      11.09739137
C       57.86541275     100.36140570      10.61830331
C       57.91008105     101.83360769      11.14336019
C       59.20958463     102.55769301      10.64555209
C       59.25884399     104.03883459      11.16364300
C       60.54865254     104.75852576      10.65294883
C       60.59686894     106.25045432      11.15563725
C       61.88788757     106.96237418      10.64498243
C       61.94351231     108.46127099      11.14286081
C       63.24391628     109.18886965      10.64301186
C       63.37254671     110.74648686      11.08140636
C       64.64678055     111.42089811      10.49762395
C       65.04236437     113.13651138      10.53586662
C       66.29958841     113.75411962      11.19546084
C       66.44753713     115.30522168      10.81259144
C       67.72582413     115.90807712      11.42459137
C       67.81166388     117.43448019      11.05860442
C       69.09019165     117.92422982      11.78267696
C       69.28705893     119.22779883      11.05386459
C       70.62220012     119.87914387      11.40766409
C       70.62983485     121.32817268      10.84803437
C       71.95118837     122.01235311      11.28570324
C       71.97214117     123.48425884      10.76921352
C       73.28036055     124.17958996      11.24429255
C       73.31287508     125.65588172      10.72474730
C       74.61545370     126.35442647      11.21866278
C       74.65187618     127.83137850      10.70601773
C       75.95911380     128.52529030      11.21501927
C       76.00351534     130.00113073      10.71636058
C       77.31966097     130.69175628      11.23501741
C       77.37167555     132.17107585      10.75341442
C       78.70992385     132.85787397      11.25660827
C       78.78769456     134.34734889      10.78549187
C       80.20293299     134.96388358      11.36328589
C       80.50762067     136.35132761      10.80464084
C       81.88581339     137.04658614      11.29010021
C       81.98541898     138.47767627      10.73146222
C       83.31325521     139.17381031      11.21150500
C       83.35965890     140.64850957      10.69864344
C       84.66779144     141.35509280      11.19170993
C       84.70532235     142.83887278      10.68517291
C       86.00903342     143.54944936      11.18589465
C       86.04908913     145.03484382      10.68107607
C       87.35379232     145.74743661      11.18732944
C       87.40193890     147.23394689      10.68817007
C       88.70488327     147.94760141      11.19881464
C       46.38002220      78.70407192      11.16126935
C       46.41681001      80.16892390      10.69689693
C       47.70979700      80.87847548      11.19195840
C       47.75067810      82.36325785      10.67827990
C       49.04960913      83.08516482      11.17765949
C       49.08965859      84.57132552      10.66634048
C       50.38928630      85.28731292      11.17235030
C       50.43146922      86.77134037      10.66016849
C       51.73087871      87.48718634      11.16912236
C       51.78024881      88.96931315      10.64981153
C       53.09116000      89.68433763      11.16111840
C       53.16314328      91.15663730      10.63100342
C       54.56617426      91.83304019      11.09687495
C       54.61038970      93.26459556      10.53616106
C       56.30790835      93.80229923      10.52817550
C       56.35404819      95.24782421      11.07536366
C       57.72505528      95.94044133      10.61613463
C       57.76425155      97.41777769      11.10336190
C       59.09158652      98.12241320      10.62104991
C       59.12850087      99.59756847      11.12479488
C       60.43724270     100.31082966      10.62978760
C       60.47461489     101.78788133      11.13968094
C       61.77447109     102.50427910      10.64066291
C       61.81040478     103.98520556      11.15174704
C       63.10823573     104.70115635      10.65721082
C       63.13991193     106.18860989      11.16636486
C       64.44186707     106.90588391      10.68950376
C       64.47692416     108.41422519      11.19000290
C       65.78666962     109.12842898      10.72316367
C       65.84426656     110.69551412      11.14405284
C       67.20605421     111.35251848      10.68063763
C       67.51192606     112.98813745      10.66835557
C       68.75204222     113.41760516      11.34587055
C       68.97036484     115.14082568      10.89574920
C       70.26474851     115.37175250      11.58169746
C       70.46003627     116.94763468      11.90067326
C       71.87607911     117.57418229      11.41584512
C       71.84313354     119.02457263      10.82728705
C       73.18305445     119.71931734      11.23185717
C       73.20003085     121.20194383      10.74054370
C       74.50956264     121.89163506      11.21868453
C       74.53805604     123.38132928      10.72678200
C       75.84261282     124.07994059      11.21764001
C       75.87999029     125.56556121      10.71794390
C       77.18696195     126.26567397      11.21579758
C       77.22808570     127.74609971      10.71599228
C       78.54198677     128.44335689      11.21569141
C       78.58498130     129.92142633      10.72387941
C       79.90969645     130.60979117      11.21991517
C       79.96344061     132.08741529      10.74500198
C       81.32698862     132.74054199      11.25898918
C       81.39153921     134.20725732      10.82845148
C       82.87299746     134.85118622      11.31750659
C       83.14556451     136.25882594      10.79415809
C       84.51549704     136.92329610      11.20941601
C       84.56906068     138.39065288      10.69318656
C       85.88644821     139.09020447      11.17554880
C       85.92695391     140.57714188      10.67646376
C       87.23052567     141.28595524      11.17763837
C       87.26999527     142.77537199      10.67712846
C       88.57155706     143.48820210      11.18326629
C       88.61663877     144.97933768      10.68370017
C       89.91578415     145.69744063      11.19291101
C       89.96048750     147.18202186      10.69975277
C       91.25078720     147.88906271      11.16418450
C       91.28724532     149.35304149      10.71430630
C       46.30656632      75.76472481      10.71973478
C       47.60580383      76.47288910      11.21433847
C       47.63741166      77.93739717      10.71141111
C       48.92333487      78.63742300      11.16065104
C       48.96357170      80.10803232      10.69499269
C       50.26304980      80.82412587      11.18904841
C       50.30890552      82.30809148      10.67889968
C       51.61134397      83.02652661      11.18310807
C       51.65254103      84.51150749      10.67559304
C       52.95127260      85.22308611      11.18895410
C       52.99523331      86.70962558      10.68164959
C       54.29123856      87.41908402      11.20448511
C       54.35308308      88.90471822      10.68903836
C       55.67193978      89.61326486      11.21676745
C       55.78793145      91.04128216      10.59498638
C       57.46802954      91.59413606      10.72953133
C       57.49176406      93.06307800      11.16950923
C       58.92048842      93.72167595      10.72628130
C       58.97135034      95.20322021      11.17636382
C       60.31612699      95.88869848      10.67683111
C       60.35466051      97.36998144      11.14758542
C       61.67005158      98.06852950      10.64100696
C       61.70500848      99.54687902      11.13532332
C       63.00829174     100.25530232      10.63190276
C       63.04024537     101.73182928      11.14102251
C       64.34034304     102.44421940      10.64710075
C       64.36703956     103.92047240      11.16502560
C       65.66872052     104.63402634      10.68818665
C       65.68652273     106.11019890      11.21672636
C       66.99445067     106.82210775      10.76694914
C       67.00324159     108.29336233      11.30763359
C       68.33357165     108.99959655      10.93501937
C       68.31104874     110.43388274      11.57135148
C       69.73350142     111.08337864      11.91770716
C       69.87565203     112.28878463      11.00338637
C       71.27072329     112.95250448      11.35675101
C       71.29626978     114.41661231      10.74535555
C       72.70491462     115.12895691      11.01465980
C       72.94645881     116.65940292      10.57668087
C       74.33971457     117.33026293      11.01571472
C       74.39809443     118.89152860      10.64124872
C       75.70824982     119.57225637      11.13426235
C       75.75136029     121.09485827      10.68057934
C       77.05251185     121.79472441      11.18179130
C       77.09689240     123.29530332      10.70167869
C       78.40105992     123.99995596      11.20311689
C       78.44747540     125.48746302      10.70743835
C       79.75961467     126.19182759      11.20136134
C       79.80459643     127.67189924      10.70060225
C       81.12832143     128.37260691      11.18362553
C       81.16998014     129.84799705      10.68764711
C       82.51632421     130.53150232      11.15684682
C       82.56210662     132.00366839      10.68209094
C       83.95646629     132.65685270      11.14069923
C       84.02429632     134.09943239      10.66742895
C       85.58583889     134.70551964      11.04598330
C       85.75122701     136.14266007      10.60180231
C       87.08604648     136.81552503      11.11105129
C       87.14041132     138.31131753      10.64516807
C       88.44507392     139.01646972      11.15467951
C       88.48905281     140.51122764      10.66505054
C       89.78868489     141.22409697      11.17552083
C       89.83087239     142.71593375      10.67653285
C       91.12879908     143.43200955      11.18654966
C       91.17307190     144.92937727      10.69100734
C       50.17658170      77.87142060      10.70638942
C       51.47694337      78.57951356      11.19865821
C       51.52087596      80.05357071      10.68855645
C       52.83249635      80.77178315      11.18661863
C       52.87508458      82.25390935      10.68153666
C       54.17854322      82.96186500      11.19218401
C       54.21833297      84.44657826      10.69339626
C       55.51447728      85.14608803      11.21887822
C       55.55772500      86.63540494      10.72779565
C       56.84631260      87.31735812      11.29401787
C       56.92672960      88.81654664      10.84062467
C       58.28924156      89.38695311      11.58811730
C       58.57417353      90.93260431      11.56351698
C       60.08672122      91.49855799      10.98703403
C       60.15936356      93.00799866      11.32516411
C       61.53151380      93.66350543      10.78855466
C       61.58272042      95.15217645      11.21709188
C       62.90477623      95.82858742      10.67840014
C       62.94379589      97.31161026      11.15033568
C       64.24686648      98.00862452      10.62893184
C       64.28057265      99.48489643      11.12967481
C       65.57971576     100.19097281      10.62264600
C       65.60814655     101.66199451      11.14438667
C       66.90909931     102.37177867      10.65857310
C       66.92923883     103.83910268      11.19524016
C       68.23535434     104.55054030      10.73285462
C       68.24744617     106.00756168      11.29858193
C       69.57210773     106.70867732      10.88355244
C       69.58968150     108.14377566      11.47159015
C       70.96071257     108.82453947      11.14307168
C       71.04848946     110.08572390      11.97703431
C       72.49487733     110.71429521      11.71576297
C       72.44125034     112.04223797      10.88595520
C       73.79597630     112.80734016      11.16299040
C       73.81420538     114.23308474      10.46348384
C       75.23561037     114.99191428      10.83638090
C       75.53103400     116.56191971      10.37991028
C       76.83807229     117.24816573      10.93012489
C       76.93689384     118.80433463      10.55979869
C       78.22224114     119.49910077      11.10467862
C       78.29887913     121.01997018      10.65637981
C       79.59342673     121.72808687      11.17937228
C       79.65461817     123.22458331      10.69371230
C       80.95950621     123.93130770      11.19616727
C       81.01626462     125.41764612      10.69018309
C       82.33318323     126.12932264      11.16938978
C       82.38455257     127.60463285      10.65746498
C       83.72414004     128.30989435      11.11459992
C       83.76465943     129.77561425      10.60406502
C       85.13708834     130.46169991      11.03104062
C       85.18155613     131.94045718      10.55383619
C       86.64685963     132.51846406      11.04875863
C       86.88323118     133.92320935      10.53368508
C       88.25020658     134.57017014      11.03086609
C       88.33945426     136.05157516      10.57454906
C       89.64467171     136.74810190      11.11052184
C       89.70366120     138.24653174      10.63854725
C       91.00024496     138.95866494      11.16485459
C       91.04905170     140.45137457      10.67085269
C       54.10004746      80.00394962      10.68103022
C       55.41053453      80.71124919      11.18478962
C       55.44863492      82.19251545      10.68702378
C       56.75603014      82.89024713      11.20050994
C       56.79104510      84.37722168      10.71986853
C       58.09572379      85.05768491      11.25786545
C       58.13606329      86.55572174      10.81020277
C       59.46375770      87.19704021      11.38398797
C       59.53222381      88.70898624      11.01935820
C       60.94208808      89.28838619      11.70566137
C       61.26585003      90.84901152      11.68430665
C       62.70136958      91.42411779      11.00979733
C       62.79151367      92.94318589      11.33576670
C       64.13090308      93.58884017      10.73530488
C       64.18608093      95.07784379      11.18351627
C       65.48815536      95.75855763      10.62614156
C       65.52699463      97.23694561      11.11757341
C       66.81970937      97.93185662      10.58498940
C       66.85532857      99.40343722      11.10578038
C       68.15453060     100.10588561      10.60411370
C       68.18060937     101.56476503      11.14541785
C       69.48253995     102.26245540      10.66396879
C       69.49751733     103.72077147      11.22507612
C       70.82645940     104.40987430      10.79269749
C       70.84085271     105.82490032      11.35987371
C       72.16384095     106.49926525      10.89566083
C       72.21879509     107.78861884      11.69275588
C       73.69228470     108.35143837      11.65652326
C       73.64604607     109.74936969      11.03163224
C       75.00278332     110.47117907      11.31599734
C       74.98859347     111.91970923      10.67627608
C       76.31998628     112.67272176      11.03283244
C       76.37029323     114.12291282      10.34966827
C       77.75174675     114.89494740      10.80429303
C       78.05854742     116.48555382      10.36522223
C       79.30670165     117.17572909      10.99891583
C       79.46095938     118.73214566      10.59400249
C       80.71929705     119.43094406      11.18002651
C       80.83883104     120.94778764      10.68357007
C       82.13744726     121.64776825      11.19015627
C       82.20976681     123.15312628      10.69501211
C       83.50769172     123.86966375      11.18558036
C       83.58257557     125.35277275      10.65749354
C       84.90033606     126.07474036      11.11832693
C       84.96822634     127.53736516      10.57227463
C       86.33408825     128.24230357      10.97148236
C       86.36880258     129.69100611      10.44533989
C       87.79208927     130.30723369      10.83926806
C       87.81862870     131.76916596      10.39457765
C       89.34102985     132.33764917      10.83076647
C       89.52021653     133.80152886      10.45350646
C       90.82165939     134.48181669      11.05075887
C       90.90903559     135.98479201      10.60537773
C       58.02895789      82.12649734      10.67905426
C       59.34849754      82.81141294      11.18337164
C       59.37545193      84.30253537      10.72676780
C       60.70068628      84.96255610      11.25240089
C       60.73540150      86.46538282      10.84068944
C       62.08426785      87.09686260      11.39458870
C       62.15148666      88.61589012      11.06544443
C       63.58925378      89.19221531      11.68305292
C       63.89845889      90.75887015      11.63457288
C       65.34170709      91.32354502      10.88431450
C       65.41028607      92.84048191      11.21532530
C       66.72011207      93.46735906      10.58366245
C       66.77428367      94.96496320      11.08349153
C       68.07055929      95.63534389      10.54371902
C       68.09379529      97.12679635      11.06391598
C       69.40803227      97.81015908      10.57644329
C       69.43937326      99.27242436      11.06543034
C       70.70878813      99.94870410      10.49527492
C       70.76094006     101.35871377      11.10568491
C       72.02893537     102.07734310      10.63385072
C       72.03059232     103.39508154      11.42703530
C       73.47723754     103.94062646      11.46768329
C       73.47968236     105.33839836      10.81336440
C       74.81003831     105.97247894      11.33854787
C       74.85381583     107.43594544      10.90798671
C       76.19391190     108.12624910      11.30819237
C       76.19881331     109.60951296      10.76356857
C       77.51511736     110.34436717      11.17032793
C       77.52926516     111.81603036      10.56661650
C       78.83917963     112.56413403      11.00208508
C       78.91298745     114.03887146      10.36936018
C       80.24854489     114.79232752      10.92243693
C       80.53349015     116.42093437      10.53827682
C       81.75299048     117.04752847      11.21657084
C       81.95350460     118.65256164      10.73811120
C       83.20338800     119.30704163      11.27762173
C       83.38410587     120.84272824      10.70553555
C       84.63294058     121.56008357      11.22456188
C       84.74825322     123.07799423      10.70878724
C       86.02056756     123.79668925      11.23013596
C       86.13732877     125.28330377      10.63389345
C       87.44540602     126.01654758      11.07378525
C       87.56602377     127.44420634      10.40229318
C       88.99978300     128.08594582      10.69536163
C       89.03663714     129.56306928      10.19552326
C       90.48704334     130.11378508      10.74798362
C       90.67323161     131.55505761      10.31866281
C       63.33245184      86.37601611      10.78973264
C       64.69618720      86.98701079      11.30523778
C       64.77517520      88.51840126      10.99022245
C       66.23778533      89.04094656      11.57242021
C       66.46232200      90.59015974      11.61303361
C       67.98303449      91.05298377      11.31009977
C       67.99683467      92.67539153      11.08432638
C       69.28623543      93.25140911      10.36368549
C       69.36717684      94.72577919      10.95965652
C       70.60749594      95.45826632      10.46502563
C       70.59123797      96.81009706      11.22961785
C       72.02627874      97.35957109      11.25241478
C       72.02389657      98.73579347      10.52761296
C       73.28101668      99.42238417      11.07715754
C       73.35630750     100.86811886      10.54757449
C       74.63300736     101.49674900      11.17534438
C       74.69249624     102.97985214      10.77196344
C       76.02416534     103.64232472      11.25953973
C       76.05263397     105.13441740      10.78744128
C       77.37799698     105.83205239      11.25768535
C       77.41108645     107.31796960      10.74720914
C       78.72195071     108.03702640      11.20420256
C       78.74333943     109.52047877      10.66109749
C       80.04120236     110.24511743      11.12668859
C       80.07286334     111.72157157      10.56024206
C       81.36028233     112.43744020      11.07103231
C       81.43263546     113.91998052      10.52540336
C       82.72610191     114.60663270      11.13857373
C       82.84485679     116.11702205      10.70825387
C       84.15589864     116.81798711      11.21161597
C       84.25129208     118.35659252      10.71985807
C       85.58916176     119.09047139      11.15288927
C       85.82676891     120.75326318      10.74107705
C       87.07167627     121.38036351      11.34428603
C       87.24018466     122.98127478      10.82675792
C       88.50326748     123.64215830      11.31909252
C       88.65684991     125.21754070      10.67095271
C       89.99048269     125.81173597      11.12312199
C       90.37238561     127.17896820      10.33500908
C       67.39124512      88.35666644      10.76183573
C       68.92384198      88.71166475      11.17522144
C       69.17927837      90.03809401      10.56891203
C       70.49908553      90.68107233      11.04520637
C       70.55197103      92.10903240      10.38738058
C       71.80015359      92.79779774      10.99220744
C       71.90999699      94.24772430      10.44172069
C       73.16872809      94.88836441      11.07559901
C       73.23720168      96.36499857      10.62911115
C       74.54738702      97.03948901      11.13566212
C       74.57031689      98.53148227      10.63284277
C       75.87597139      99.21113261      11.16056621
C       75.91850015     100.69073978      10.67259934
C       77.23277507     101.37627541      11.19389067
C       77.27729213     102.86099777      10.71197318
C       78.59058021     103.56123690      11.21381245
C       78.62472383     105.04758793      10.71972017
C       79.93464863     105.75844867      11.20422860
C       79.96656216     107.24289924      10.68713876
C       81.26790894     107.95711705      11.17173734
C       81.29692301     109.43921032      10.64198142
C       82.59270968     110.15044887      11.14211885
C       82.62884682     111.63138891      10.61588877
C       83.92776976     112.33398004      11.13818735
C       83.97749287     113.82028215      10.63996188
C       85.28354532     114.52123891      11.15702351
C       85.34788127     116.01599818      10.66503264
C       86.64933339     116.72007611      11.16561774
C       86.72377192     118.22185823      10.66157562
C       88.03270702     118.90549630      11.22284505
C       88.13320968     120.42292797      10.79675801
C       89.45829298     121.10442288      11.26047253
C       89.53405721     122.62380656      10.78563635
C       90.89293310     123.30237071      11.16704094
C       90.95634072     124.77756070      10.63450132
C       71.75893687      89.78916403      10.65784402
C       73.05772297      90.48681556      11.17503457
C       73.11199106      91.93235892      10.60719510
C       74.41387524      92.61969937      11.14010476
C       74.46774602      94.07835046      10.61659723
C       75.77052324      94.77119071      11.14309744
C       75.81891311      96.24593349      10.63402101
C       77.11944026      96.94345180      11.15794473
C       77.15577154      98.42409537      10.66071475
C       78.46297258      99.12238306      11.17775539
C       78.50276994     100.60280678      10.68234562
C       79.81229269     101.30588836      11.19167423
C       79.85107211     102.78841285      10.69403983
C       81.15909037     103.49509536      11.19403503
C       81.19271548     104.97781166      10.68863707
C       82.49741866     105.68611490      11.18391592
C       82.52855733     107.16884678      10.66968717
C       83.82848996     107.87700713      11.16821362
C       83.86021383     109.35964005      10.65207945
C       85.15910499     110.06660791      11.15736944
C       85.19516773     111.54898128      10.64615328
C       86.49686880     112.25462153      11.15677864
C       86.53855456     113.73872172      10.65316975
C       87.84446274     114.44441781      11.16206821
C       87.89266862     115.93147439      10.66190386
C       89.20503409     116.63406201      11.16253698
C       89.25547122     118.12438802      10.67121186
C       90.58292851     118.82551157      11.14403761
C       90.63703968     120.31180484      10.64496443
C       75.70487264      91.81800244      10.67741445
C       77.00981314      92.51955126      11.18384782
C       77.05083997      93.98660487      10.66131484
C       78.35377027      94.69064786      11.17362111
C       78.39416310      96.16694513      10.66368153
C       79.69729560      96.87092289      11.17649304
C       79.73580139      98.35001006      10.67416822
C       81.04245702      99.05517274      11.18359241
C       81.08128648     100.53476761      10.68237638
C       82.38887078     101.24119757      11.18846074
C       82.42569161     102.72009181      10.68433644
C       83.73224437     103.42479482      11.18694643
C       83.76388163     104.90512578      10.67857511
C       85.06587859     105.61013229      11.17968477
C       85.09573964     107.09285120      10.66777429
C       86.39369651     107.79999889      11.17067304
C       86.42691732     109.28363160      10.65914382
C       87.72638531     109.99177254      11.16392429
C       87.76231686     111.47533011      10.65570551
C       89.06507948     112.18380893      11.16035359
C       89.10445896     113.66697129      10.65381537
C       90.41219727     114.37666527      11.15171495
C       90.45475645     115.85878207      10.64209053
C       79.62614523      93.91175847      10.67933635
C       80.92986084      94.61882704      11.18456738
C       80.96837846      96.09768781      10.67649194
C       82.27350147      96.80532414      11.18333350
C       82.31360530      98.28478595      10.67921957
C       83.62130537      98.99324345      11.18723952
C       83.66325565     100.47092383      10.68519050
C       84.97220226     101.17366563      11.19243906
C       85.00989742     102.64704534      10.68884335
C       86.30938137     103.34730583      11.19543533
C       86.33894481     104.82256229      10.68374547
C       87.63245159     105.52890131      11.18431218
C       87.66065919     107.01318441      10.67216370
C       88.95629479     107.72493295      11.17343823
C       88.99145424     109.21085203      10.66228112
C       90.29091015     109.92258696      11.16517136
C       90.32811733     111.40651454      10.65567464
C       83.54233316      96.03443644      10.67991895
C       84.84886778      96.74520296      11.18794741
C       84.89601818      98.22724655      10.68780089
C       86.20274782      98.93465147      11.19822092
C       86.24187792     100.40480723      10.69843209
C       87.53593309     101.10604705      11.16114990
C       87.57203680     102.57360796      10.70349066
C       88.86139423     103.27557934      11.15845452
C       88.89493739     104.74668828      10.69230167
C       90.18496315     105.45274707      11.19048097
C       90.21867336     106.93769115      10.67651567
C       87.46321620      98.16806126      10.70279945
C       88.75015561      98.86921431      11.16475580
C       88.78466729     100.34097065      10.71223562
C       90.06861246     101.04690626      11.21309598
C       90.11089024     102.51133730      10.71029592
C       46.68561435      96.47887020       8.50279380
C       46.70639024      97.95978682       8.98557268
C       46.71052784      93.52512629       9.04740395
C       71.90197917      89.52639193       9.14004678
C       73.19290920      90.23847523       8.62285621
C       75.74783312      91.73908301       9.12047630
C       47.55358756     125.53762238       8.58506797
C       47.44498409     121.13173293       8.60272864
C       47.48059132     122.61215155       9.09467330
C       48.77003129     123.31397129       8.63970943
C       48.80643678     124.77820516       9.08786802
C       50.09849795     125.48353149       8.63689489
C       50.13714506     126.95571518       9.08675311
C       51.42308689     127.65570679       8.63751317
C       47.34001492     116.66070744       8.61424808
C       47.37156543     118.14828165       9.11958888
C       48.67041545     118.85906914       8.61847920
C       48.70002340     120.35576133       9.11441849
C       49.99538388     121.05869504       8.61385176
C       50.02374759     122.54359339       9.10586226
C       51.31698315     123.24375570       8.60768295
C       51.34872062     124.71927502       9.10126730
C       52.64649701     125.42002835       8.60620581
C       52.68001706     126.89122176       9.10317151
C       53.98681123     127.59387552       8.60911578
C       54.02243643     129.06853235       9.10960772
C       55.33760123     129.78023361       8.61154552
C       47.26502009     112.21376254       8.59396147
C       47.27367517     113.69011639       9.11102526
C       48.57990836     114.39535776       8.62642666
C       48.60218753     115.88200096       9.12847682
C       49.90256574     116.58934276       8.62995036
C       49.93188365     118.07929670       9.13038968
C       51.23033888     118.78552886       8.62749090
C       51.25726823     120.27668488       9.12600024
C       52.55832745     120.97847008       8.62472569
C       52.58240955     122.46600811       9.12164824
C       53.89037515     123.16478723       8.62276496
C       53.91568011     124.64839098       9.11988430
C       55.22705970     125.34742964       8.62050469
C       55.25800870     126.82685944       9.11926450
C       56.56837637     127.53072838       8.61505608
C       56.60548022     129.01147181       9.11662749
C       57.90760050     129.72188604       8.60598012
C       57.95089623     131.20618963       9.11114033
C       59.24656679     131.92545978       8.59765416
C       47.29049636     107.76891650       8.48216671
C       47.21605792     109.24113087       9.03459548
C       48.54774168     109.94773220       8.62783610
C       48.52250532     111.42647648       9.13706653
C       49.83559934     112.12313528       8.67147541
C       49.84039134     113.61521358       9.15618258
C       51.14110426     114.31740250       8.65604512
C       51.16497288     115.81118148       9.14608452
C       52.46378425     116.51829592       8.64079450
C       52.49439828     118.00808208       9.13902011
C       53.79450796     118.71504419       8.63423963
C       53.82535938     120.20141037       9.13588279
C       55.12848092     120.90641145       8.63299253
C       55.15917808     122.38954790       9.13510999
C       56.46512843     123.09287101       8.63217751
C       56.49694896     124.57434564       9.13182369
C       57.80373519     125.27718267       8.62581385
C       57.83789770     126.75924863       9.12257110
C       59.14049478     127.46372621       8.60921003
C       59.17613315     128.94936962       9.10476785
C       60.46718981     129.65822552       8.57928588
C       60.51440673     131.14770579       9.07829556
C       61.79409981     131.87406814       8.54029862
C       61.85455226     133.35875681       9.07139626
C       63.12823480     134.11347943       8.54576316
C       47.34859217     103.28763624       8.44141307
C       47.21949323     104.76481334       8.91220888
C       48.59743692     105.48726400       8.63517366
C       48.49933943     106.97070637       9.12188797
C       49.85446391     107.68012323       8.76533159
C       49.79139525     109.16076428       9.23154752
C       51.13073815     109.85480724       8.79607893
C       51.09278311     111.34827516       9.23792193
C       52.39284243     112.04092318       8.72713167
C       52.40448527     113.54386663       9.18227520
C       53.69963809     114.25338353       8.65997659
C       53.72832865     115.74391952       9.15201065
C       55.02755030     116.45411451       8.64138527
C       55.05997570     117.93991480       9.14245839
C       56.36215755     118.64946050       8.63781029
C       56.39495185     120.13215255       9.14248924
C       57.70053838     120.83959788       8.64198292
C       57.73258835     122.32080769       9.14405535
C       59.03995404     123.02507193       8.64288015
C       59.07299092     124.50704843       9.13799566
C       60.37953992     125.20977896       8.62904177
C       60.41282525     126.69372147       9.11651452
C       61.71216179     127.39706023       8.59367899
C       61.74146588     128.88611432       9.07036844
C       63.01367572     129.59815383       8.50414621
C       63.07412066     131.09478111       8.98796129
C       64.33343151     131.86172179       8.41417608
C       64.40922545     133.32686881       8.95747460
C       65.67176587     134.11693135       8.40357532
C       65.74390484     135.55650730       9.00843137
C       66.99731210     136.37017729       8.49292621
C       47.90657860      98.70611130       8.37357273
C       47.93776680     100.16781704       8.90241489
C       48.83432914     101.12955101       8.21646662
C       48.59208784     102.51434272       9.05280853
C       49.95499147     103.31071499       8.78350425
C       49.80474124     104.72864934       9.33468021
C       51.21361166     105.51050519       8.96178313
C       51.09971211     106.93517906       9.44849576
C       52.49798624     107.67631376       8.99387097
C       52.40935834     109.11627594       9.42880381
C       53.76711597     109.82894971       8.87572704
C       53.67722623     111.29693459       9.27276060
C       54.95603085     112.01052087       8.65959022
C       54.97489717     113.48834717       9.15820206
C       56.27254743     114.20473896       8.64114041
C       56.29659726     115.68352325       9.14499416
C       57.59814951     116.39722125       8.63609568
C       57.62916498     117.87744138       9.14434851
C       58.93506829     118.59050628       8.64644891
C       58.96655463     120.06869241       9.15488254
C       60.27666480     120.77761662       8.66121452
C       60.30601546     122.25736243       9.16167390
C       61.61613091     122.96267529       8.66347738
C       61.65110075     124.44671256       9.14835259
C       62.96320318     125.15954869       8.63704570
C       62.99343969     126.64256658       9.10912573
C       64.30441471     127.36559204       8.58139662
C       64.31641872     128.85190067       8.95753939
C       65.53507395     129.68657533       8.21004675
C       65.64040169     131.09850664       8.77880584
C       66.89231391     131.96806822       8.09250265
C       66.98400636     133.34882467       8.73271958
C       68.24848251     134.24348945       8.11511107
C       68.32632416     135.60524408       8.80794153
C       69.55911867     136.54996609       8.22574375
C       69.61054955     137.89013908       9.03632822
C       70.74062028     138.98458737       8.62294249
C       46.68227565      92.03985414       8.55637404
C       47.98374961      94.21872316       8.49345448
C       48.00110272      95.71428191       8.95225554
C       49.22154771      96.41288559       8.32982488
C       49.23512127      97.94963979       8.73955967
C       50.34044859      98.75756272       8.01548712
C       50.26383746     100.43814091       7.89749080
C       51.55870043     101.28729880       8.38231893
C       51.37144928     102.68281700       9.22148317
C       52.69115863     103.48878349       8.78244931
C       52.69254027     104.90638406       9.41825374
C       53.97837086     105.63158910       8.86803911
C       54.00039226     107.07056496       9.43294175
C       55.25755932     107.74418345       8.79924814
C       55.28957301     109.18421825       9.25988714
C       56.47778758     109.86828500       8.58159310
C       56.28899147     111.29038566       9.08991006
C       57.58935704     112.01096328       8.58654795
C       57.56284140     113.44738443       9.13313127
C       58.86061580     114.15821841       8.63254615
C       58.87321865     115.63050110       9.13626002
C       60.17566541     116.35130960       8.63562689
C       60.20292361     117.82172518       9.15607333
C       61.51587748     118.53966198       8.67166655
C       61.54217363     120.01122489       9.18366847
C       62.85999744     120.72423384       8.70151145
C       62.88109267     122.20428577       9.19507258
C       64.18911871     122.92443485       8.68489876
C       64.23878563     124.42080832       9.16716067
C       65.56845635     125.23197572       8.70128912
C       65.56669537     126.68784945       9.20317768
C       66.94300158     127.79877620       9.06863271
C       66.98785360     129.08686279       8.23464706
C       68.28421175     130.04996179       8.81112999
C       68.37874729     131.39283869       8.11385736
C       69.64097972     132.28627752       8.78836666
C       69.73207800     133.65276145       8.16359109
C       70.98974492     134.55835355       8.91384946
C       70.98210600     135.89759713       8.18513034
C       72.19628290     136.92353429       8.48806416
C       71.99327594     138.47910133       9.22925189
C       73.24969945     139.23851690       8.75295753
C       46.59957822      87.59698305       8.58490304
C       46.63372429      89.08219224       9.08242621
C       47.93176843      89.78441552       8.56597869
C       47.96285780      91.27069787       9.05477528
C       49.25441734      91.96940912       8.52643866
C       49.27763014      93.46453405       8.98996667
C       50.54671811      94.16426307       8.43204260
C       50.52148314      95.68694476       8.82297152
C       51.65747230      96.56005838       8.27339511
C       51.54211255      98.21529653       8.74429948
C       52.81388648      98.98304874       8.39049996
C       52.75892477     100.47232697       8.97087699
C       54.06974235     101.22053515       8.56630685
C       54.03407479     102.69032568       9.15691529
C       55.31696292     103.42114403       8.66390164
C       55.33895912     104.86986281       9.23836530
C       56.62017099     105.57222581       8.69348535
C       56.64844752     107.02888069       9.20416147
C       57.91838448     107.70637091       8.61813743
C       57.93461529     109.16544049       9.06005273
C       59.16274235     109.85988736       8.52054218
C       58.93333380     111.25589173       9.07830584
C       60.27590468     111.98113434       8.64527461
C       60.16229179     113.40553637       9.13658826
C       61.44696174     114.13375009       8.57531881
C       61.45469156     115.58468866       9.12695199
C       62.76410088     116.31896672       8.65412622
C       62.78285991     117.77612205       9.19241724
C       64.11193817     118.50715997       8.73588747
C       64.12521530     119.97151273       9.24229472
C       65.46249646     120.70680662       8.77872216
C       65.46469343     122.19027137       9.20207140
C       66.72338860     123.10596048       8.56271988
C       66.79474680     124.49203144       9.26200300
C       68.16778536     125.62581269       9.26998854
C       68.18957359     127.02133683       8.62865480
C       69.51823777     127.86374767       9.07188271
C       69.59134474     129.29161400       8.47299989
C       70.88670318     130.08818912       9.00960932
C       70.96569862     131.53740257       8.46239728
C       72.23499919     132.31181171       9.06285907
C       72.30096792     133.79252405       8.58283865
C       73.53845091     134.55229703       9.21450147
C       73.56635036     136.05444708       8.71383754
C       74.75003177     136.82467362       9.43447841
C       74.47767668     138.50780577       9.41078331
C       75.73367499     139.18221338       8.80595643
C       75.71893080     140.75373638       9.19096877
C       77.00288279     141.47401867       8.65805909
C       46.49253777      83.14037671       8.59736962
C       46.52916341      84.62875387       9.10110237
C       47.83009591      85.33892030       8.59465174
C       47.86658401      86.82514775       9.09287331
C       49.16955602      87.53167380       8.58410305
C       49.20335233      89.01759511       9.07591529
C       50.50534431      89.72274579       8.56448666
C       50.53018948      91.21334241       9.04576969
C       51.81919187      91.92936544       8.54124715
C       51.81739555      93.43581832       9.02204678
C       53.00359452      94.24261346       8.53405862
C       52.85175045      95.90868233       8.91923629
C       54.08793476      96.67083680       8.44964600
C       54.03499518      98.20289725       8.95012967
C       55.32686160      98.94124617       8.51246078
C       55.32413886     100.42999172       9.05762031
C       56.61421644     101.15542080       8.57947947
C       56.61911884     102.63084976       9.11758465
C       57.91319283     103.34371755       8.61637266
C       57.93907133     104.81103000       9.14178415
C       59.23648976     105.51387289       8.61879166
C       59.25718859     106.98338654       9.11459386
C       60.54998248     107.69406290       8.60800764
C       60.55058366     109.17805977       9.09262836
C       61.83094722     109.83749585       8.57360200
C       61.80137576     111.27808974       9.05708682
C       63.00380696     111.98321975       8.45387783
C       62.77592914     113.39446308       9.00140585
C       64.06756474     114.13740219       8.53769131
C       64.04173447     115.55762047       9.15319940
C       65.36214216     116.30998801       8.73690872
C       65.37362410     117.76047447       9.28967468
C       66.72516540     118.55166693       8.90027880
C       66.68651235     120.01260898       9.42898706
C       68.04116879     121.13964125       9.38690742
C       68.12695487     122.47890125       8.59858525
C       69.36036919     123.42706511       9.23651921
C       69.40685275     124.87990160       8.72280038
C       70.73275774     125.65537237       9.18202938
C       70.79011914     127.10225040       8.62180018
C       72.09579014     127.85956669       9.12133288
C       72.16475706     129.32311279       8.58107210
C       73.45047955     130.06626895       9.11976382
C       73.51548807     131.54989005       8.61464768
C       74.79397800     132.27392920       9.17202237
C       74.82561670     133.78486174       8.71467239
C       76.09228064     134.50963981       9.25444488
C       76.03221569     136.09233284       8.83850737
C       77.32066524     136.73640323       9.33313824
C       77.01101869     138.48741436       9.35644317
C       78.23232507     139.19680455       8.72256484
C       78.25717065     140.72747528       9.18156661
C       79.54622640     141.44552218       8.65506638
C       79.58227632     142.94668382       9.13684897
C       80.88082376     143.65877821       8.62454269
C       46.38108722      78.70022040       8.62965305
C       46.41768515      80.16602350       9.08919498
C       47.71194899      80.87363137       8.59306603
C       47.75247897      82.35988371       9.10047277
C       49.05410923      83.07949755       8.60123387
C       49.09286518      84.56695617       9.10420500
C       50.39812806      85.27927353       8.60101081
C       50.43528654      86.76459130       9.09899820
C       51.74247327      87.47441605       8.59782488
C       51.77315442      88.96094866       9.08858647
C       53.07186449      89.67418879       8.58679261
C       53.07997903      91.17294224       9.06301897
C       54.31717531      91.91066445       8.52020514
C       54.29547280      93.45612693       8.99365072
C       55.39730335      94.35275389       8.44346287
C       55.28738655      95.90324939       9.00129225
C       56.57937997      96.64801289       8.53704498
C       56.57441277      98.15986177       9.02895050
C       57.86851460      98.88112717       8.55387144
C       57.88080044     100.37071339       9.07138199
C       59.17566899     101.08712220       8.58052396
C       59.19754221     102.56644450       9.09648527
C       60.49727326     103.27924703       8.59504704
C       60.52653579     104.75293450       9.10445163
C       61.82839791     105.46521756       8.60199664
C       61.85351147     106.93766016       9.10315179
C       63.15983535     107.63876851       8.61258352
C       63.16835608     109.11038695       9.08937664
C       64.46259002     109.78881514       8.56802789
C       64.43979952     111.25573274       8.97140592
C       65.68046950     111.95778915       8.47907131
C       65.38474300     113.37627905       9.01252747
C       66.69226053     114.14918969       8.63112286
C       66.62185653     115.55096718       9.27395157
C       67.91760704     116.37454914       8.87858965
C       67.93528346     117.80579586       9.52109465
C       69.24902058     118.86513564       9.52191476
C       69.24390866     120.33746809       8.90313970
C       70.58253262     121.18768977       9.30263037
C       70.63707860     122.67232875       8.76121613
C       71.95090928     123.42075335       9.23010666
C       71.99477274     124.88636185       8.69480210
C       73.30706520     125.61863084       9.17711407
C       73.36075993     127.08785726       8.65057856
C       74.66145646     127.81339957       9.15715700
C       74.71717447     129.29402336       8.64782827
C       76.00989501     130.01005091       9.16923209
C       76.05668242     131.50404802       8.68059050
C       77.34201518     132.21251992       9.21317450
C       77.35748746     133.71956257       8.73424791
C       78.64480414     134.45237854       9.22172058
C       78.44717283     135.98894667       8.56854601
C       79.68761815     136.89589712       8.54574907
C       79.50964270     138.45276372       9.16905269
C       80.78730868     139.18699297       8.66250170
C       80.81105368     140.68564075       9.16414280
C       82.10281691     141.39925858       8.64021906
C       82.14261562     142.89133666       9.13448226
C       83.44121805     143.60363626       8.62167073
C       83.48178855     145.09088143       9.12167182
C       84.78454411     145.80286681       8.61483024
C       46.30749227      75.76302379       9.07815638
C       47.60749646      76.46977966       8.58355267
C       47.63836097      77.93528671       9.08300006
C       48.92509893      78.63410904       8.63345929
C       48.96513223      80.10596857       9.09497332
C       50.26638839      80.82163060       8.60185005
C       50.31239326      82.30671962       9.10817986
C       51.61960960      83.02650405       8.60953819
C       51.66002117      84.51110284       9.11426280
C       52.96955241      85.22669415       8.61783107
C       53.00562931      86.71021981       9.12093952
C       54.31630774      87.42752119       8.63346103
C       54.33743076      88.91625802       9.12116831
C       55.63280842      89.63591195       8.62950375
C       55.58567100      91.15335014       9.04572642
C       56.72917343      92.02570881       8.54476103
C       56.60373037      93.64414454       9.00818102
C       57.88028974      94.36018177       8.58082449
C       57.83018614      95.88642014       9.06828286
C       59.11806120      96.60530412       8.58923439
C       59.12602533      98.10707204       9.07341669
C       60.41976418      98.82185562       8.57950119
C       60.44365425     100.31208730       9.08022006
C       61.74109464     101.02970922       8.58236636
C       61.77174886     102.51077869       9.09072558
C       63.07556521     103.23043264       8.59680257
C       63.10750639     104.70607007       9.10798081
C       64.42005800     105.42576887       8.62877410
C       64.44607049     106.89659664       9.14067033
C       65.76772204     107.61141626       8.67983692
C       65.77450118     109.07991103       9.16427039
C       67.10036676     109.78047724       8.72437858
C       67.08691955     111.23162421       9.12721111
C       68.30987753     112.02913168       8.67504181
C       67.96561536     113.40167813       9.16366247
C       69.34884845     114.28352246       8.77475021
C       69.19570876     115.65102677       9.34353003
C       70.43210764     116.57335556       8.60476873
C       70.49628215     118.20453828       8.79573294
C       71.81502606     118.95011057       9.28057672
C       71.83562374     120.44410678       8.76392690
C       73.16462688     121.18304428       9.20471293
C       73.20248974     122.65847532       8.70077264
C       74.52188621     123.37345835       9.17986068
C       74.56600976     124.84888779       8.67336910
C       75.87545372     125.56085914       9.16837636
C       75.92202115     127.04027867       8.66284063
C       77.22443900     127.75029175       9.16626117
C       77.26803590     129.23700735       8.66848911
C       78.56623533     129.94481731       9.17551790
C       78.59725451     131.44362955       8.69238351
C       79.89243897     132.15345834       9.19405017
C       79.88989772     133.68495169       8.73273353
C       81.14693538     134.38396867       9.30288893
C       80.84214311     136.14685382       9.27055088
C       82.10116655     136.82994807       8.72100628
C       82.05280352     138.39636508       9.16532104
C       83.33234360     139.12398822       8.63759759
C       83.36605431     140.62604669       9.13744904
C       84.66208642     141.34485194       8.62040837
C       84.70432868     142.83309548       9.12399554
C       86.00583868     143.54771078       8.61457133
C       86.04883682     145.03346477       9.11894416
C       87.35368092     145.74716875       8.61092419
C       87.40230080     147.23353348       9.11036281
C       88.70573413     147.94699380       8.59994276
C       50.17752342      77.86969064       9.09150168
C       51.47807791      78.57742935       8.59923287
C       51.52231313      80.05347036       9.10689035
C       52.83479291      80.77484477       8.61132702
C       52.87957140      82.25812410       9.11894513
C       54.18799844      82.97678368       8.62093701
C       54.22989511      84.45944883       9.13291073
C       55.54131502      85.18477716       8.64919626
C       55.57523982      86.66585960       9.17055535
C       56.88926913      87.40558680       8.72605268
C       56.88362286      88.89185620       9.26271492
C       58.11539864      89.70164225       8.87660841
C       57.90607272      91.34594274       9.24528621
C       59.17441246      92.03647499       8.79822315
C       59.09210346      93.60365411       9.18994184
C       60.37264604      94.30625832       8.69201056
C       60.36667439      95.83434239       9.13105813
C       61.65336907      96.54546018       8.61620978
C       61.67995076      98.05072417       9.09214623
C       62.97232764      98.77193546       8.58314467
C       63.00675054     100.26064052       9.08217164
C       64.30555411     100.98563217       8.58247250
C       64.34301794     102.46479630       9.09756165
C       65.65005203     103.19616555       8.61453835
C       65.68697916     104.66808173       9.14069889
C       67.00644826     105.41030114       8.68356393
C       67.03295730     106.87449011       9.22588921
C       68.36641737     107.63895145       8.82668146
C       68.36485743     109.10681448       9.39587064
C       69.68209609     109.96260499       9.10280217
C       69.66545022     111.60770961       9.46315471
C       70.91579442     112.31531655       8.87989571
C       70.87785565     113.87211802       9.21766809
C       72.05409306     114.48528260       8.37959700
C       71.92405674     116.04359297       8.31006813
C       73.08327522     116.74065807       9.00976961
C       73.08718155     118.25460363       8.65148334
C       74.40684803     118.94973806       9.10940855
C       74.42489454     120.43578059       8.64595848
C       75.74708604     121.12993523       9.13452171
C       75.78255946     122.61183055       8.65480378
C       77.09607934     123.31016762       9.15261187
C       77.13623948     124.79047121       8.65848301
C       78.44349440     125.49327738       9.15750102
C       78.48184277     126.97563788       8.65714141
C       79.78586295     127.68082229       9.15106315
C       79.81710326     129.17019315       8.65377722
C       81.11939898     129.87751028       9.13959077
C       81.13183249     131.38344992       8.65274601
C       82.42450204     132.09815304       9.13419505
C       82.35943878     133.66238529       8.69247893
C       83.65127310     134.33722181       9.16431310
C       83.35623384     136.10840556       9.25058932
C       84.57720750     136.83940604       8.62281942
C       84.59807470     138.35654385       9.12556444
C       85.88723688     139.08821218       8.60427310
C       85.92702064     140.57467037       9.11581814
C       87.22833917     141.29282328       8.60648951
C       87.26955140     142.77716624       9.11578735
C       88.57262982     143.49187358       8.60970298
C       88.61747980     144.98028445       9.11297320
C       89.91820023     145.69813793       8.60572463
C       89.96168262     147.18182550       9.09973159
C       91.25305821     147.88798774       8.63701376
C       91.28834944     149.35203471       9.08592803
C       54.09826454      80.00722486       9.11686083
C       55.40364900      80.72389804       8.61310141
C       55.44898330      82.20674501       9.12584596
C       56.75265052      82.93243719       8.62973077
C       56.79736661      84.41266949       9.16036471
C       58.10099455      85.15559893       8.68970294
C       58.13422514      86.63014336       9.25565310
C       59.41668804      87.40696292       8.83196147
C       59.40324353      88.88676355       9.45480604
C       60.61303389      89.67892107       9.03461910
C       60.37666666      91.29015360       9.45633444
C       61.63955316      91.98609372       8.90385270
C       61.61313645      93.55151218       9.25856141
C       62.88246208      94.25294852       8.69146892
C       62.91128758      95.78259207       9.13267857
C       64.19270446      96.51396321       8.59872678
C       64.23591185      98.00810862       9.08180335
C       65.53036424      98.73858515       8.56314650
C       65.57024657     100.21941368       9.07428449
C       66.86745203     100.95831446       8.57824871
C       66.91176919     102.43027957       9.11051676
C       68.21663398     103.18998324       8.64131703
C       68.25942544     104.64870751       9.19409883
C       69.58061676     105.42891780       8.76712321
C       69.60195144     106.88171983       9.35282393
C       70.89207925     107.74256339       8.95889574
C       70.94266096     109.19174301       9.60264053
C       72.19248986     110.11092402       9.05018015
C       72.23966207     111.68085158       9.39261722
C       73.48372648     112.35968758       8.67593829
C       73.49251816     113.90797772       8.94814420
C       74.69945228     114.51521150       8.21736262
C       74.48311319     116.09744200       8.24776345
C       75.72060147     116.71561572       8.84566090
C       75.70364311     118.23457103       8.50232236
C       77.00539936     118.89935777       9.02763371
C       77.02596608     120.38674319       8.58798166
C       78.33391828     121.06550765       9.10959433
C       78.36675262     122.54754302       8.63452094
C       79.67131941     123.24012296       9.14521510
C       79.70675355     124.71957802       8.64641688
C       81.01253372     125.42092592       9.14095308
C       81.04018297     126.90190196       8.63313829
C       82.34604002     127.60778433       9.10997723
C       82.36266072     129.09792990       8.60292370
C       83.66914755     129.80868541       9.06530922
C       83.65739636     131.31912694       8.57308772
C       84.95751610     132.06117711       9.00546632
C       84.75887293     133.62331708       8.37112851
C       86.00231754     134.54214631       8.33048050
C       85.85508099     136.08430791       9.02620034
C       87.13431563     136.84310383       8.53862404
C       87.15834325     138.31966105       9.08619058
C       88.45931845     139.04251921       8.58435129
C       88.49448516     140.52064645       9.10412390
C       89.79801125     141.23558117       8.60412868
C       89.83466379     142.72002241       9.11382727
C       91.13573190     143.43480083       8.61121726
C       91.17607743     144.93001447       9.10932032
C       58.01357838      82.15474985       9.11883674
C       59.30507762      82.89117631       8.61451934
C       59.35657390      84.36826698       9.16941223
C       60.64071907      85.12977735       8.68991800
C       60.68031754      86.59620889       9.29599003
C       61.94222258      87.37965205       8.85515791
C       61.94452247      88.84075133       9.52199422
C       63.12904581      89.64134295       9.04688167
C       62.90202266      91.23948368       9.48078084
C       64.13451306      91.93886560       8.85354744
C       64.15016982      93.51180239       9.20437591
C       65.40690241      94.27457770       8.61473969
C       65.46109593      95.76248285       9.09038734
C       66.75035186      96.50199518       8.54406186
C       66.80100290      97.97926354       9.04474948
C       68.10423863      98.73038056       8.54155561
C       68.13760564     100.20136578       9.05316189
C       69.42629570     100.99200827       8.53917468
C       69.47788184     102.42931063       9.11607291
C       70.78334550     103.24579898       8.65746459
C       70.84668663     104.66356327       9.24432763
C       72.12752247     105.58044158       8.74940517
C       72.13428678     106.97128471       9.40358614
C       73.43811799     107.94128604       8.96739730
C       73.50400710     109.48494070       9.47950095
C       74.76861851     110.19276129       8.78553663
C       74.83232373     111.71031408       9.15528579
C       76.10262783     112.36657589       8.50218510
C       76.12080471     113.88816191       8.81345025
C       77.35274929     114.49513099       8.14247561
C       77.11421306     116.06855993       8.15493036
C       78.33578459     116.66605524       8.82845208
C       78.33466997     118.17480658       8.47848634
C       79.61628193     118.83199203       9.05440014
C       79.63381925     120.31272210       8.59577078
C       80.92276357     120.99165771       9.13362548
C       80.95048597     122.47076703       8.64252667
C       82.24918290     123.16858169       9.15318147
C       82.27896358     124.64010786       8.63179903
C       83.58809375     125.34420118       9.10866011
C       83.59546446     126.82143779       8.58143750
C       84.90333087     127.53345968       9.03121471
C       84.89938819     129.02793868       8.49958191
C       86.20727330     129.75987305       8.91461137
C       86.15373630     131.30515924       8.43829010
C       87.43824656     132.05020913       8.90250296
C       87.17756102     133.78545943       8.98479938
C       88.43223788     134.55856428       8.45961590
C       88.40290053     136.05707368       9.01072248
C       89.70824318     136.79148654       8.54047839
C       89.72616174     138.26437188       9.07844356
C       91.03423183     138.97863977       8.59393511
C       91.06152047     140.45897138       9.10952663
C       61.90821739      84.32822711       9.12314221
C       63.17577299      85.10526908       8.62326370
C       63.22374164      86.55949647       9.25668415
C       64.46698921      87.35958291       8.78710295
C       64.49754111      88.81639292       9.45734914
C       65.65206572      89.65027281       8.91362856
C       65.48589057      91.20682912       9.32148011
C       66.60157018      92.06306228       8.47622826
C       66.70432651      93.51973300       9.03927024
C       67.97140919      94.30093226       8.45609346
C       68.03406538      95.75575809       8.99583306
C       69.33353252      96.55649207       8.48438894
C       69.39738722      97.98717766       9.01267200
C       70.68340420      98.84109519       8.43487796
C       70.69315353     100.25005687       8.96971237
C       72.03812301     101.14471885       8.48065723
C       72.03171320     102.51970314       9.13073487
C       73.38837290     103.50216505       8.75218050
C       73.43560291     105.01643236       9.26447871
C       74.72097501     105.81330033       8.76729768
C       74.76482121     107.29715080       9.34465730
C       76.04261051     108.02089076       8.74740487
C       76.10132176     109.50244234       9.21896301
C       77.39221388     110.18630440       8.61146393
C       77.43789400     111.68272321       9.02530413
C       78.73717363     112.34608064       8.45316498
C       78.74968611     113.85802302       8.80874523
C       80.01780162     114.46911587       8.21627221
C       79.81000036     116.02523026       8.23379114
C       80.96003735     116.63671170       9.04621381
C       81.00347290     118.10104771       8.59530723
C       82.23166300     118.78517593       9.21247732
C       82.24714172     120.22802276       8.65531027
C       83.53573503     120.91807783       9.13946146
C       83.53822314     122.40166512       8.65530308
C       84.85518244     123.09885126       9.15515202
C       84.87390136     124.55488425       8.60816096
C       86.18468175     125.26718684       9.07500018
C       86.14373344     126.74221460       8.49053025
C       87.45899436     127.47613119       8.86314445
C       87.42207763     128.99563061       8.32657366
C       88.73804064     129.77755574       8.65509211
C       88.55093826     131.39647386       8.10540790
C       89.82346263     132.32847127       8.14164050
C       89.68509112     133.80093017       8.89017705
C       90.99227398     134.55169615       8.48997137
C       90.97414992     136.01268937       9.05095460
C       65.76079759      86.54039346       9.14830612
C       66.97467016      87.38370440       8.65641165
C       67.01468257      88.87126316       9.22511059
C       68.08510299      89.78105458       8.35980045
C       67.98405275      91.36624297       8.01562624
C       69.40218235      92.26599951       8.12376334
C       69.27248313      93.58919891       8.82771667
C       70.64476558      94.50297814       8.34323969
C       70.61304653      95.87307811       8.96651841
C       71.97840409      96.82519117       8.56204551
C       72.01403765      98.34385265       8.99352300
C       73.34606153      99.12392445       8.50806361
C       73.36828202     100.60953721       9.00400572
C       74.66996452     101.39938426       8.58874778
C       74.68512904     102.86095575       9.19636148
C       75.97480179     103.61675630       8.68711248
C       76.01357605     105.08411686       9.22361470
C       77.30705250     105.80221207       8.68764190
C       77.35231145     107.27842672       9.19278600
C       78.65146690     107.97580779       8.63674397
C       78.69857163     109.46059746       9.10600288
C       80.00867893     110.14897931       8.55924370
C       80.04567315     111.64426796       9.00666543
C       81.36740325     112.33712192       8.50341667
C       81.36575410     113.83824872       8.94942488
C       82.65547396     114.56705119       8.55245931
C       82.61904193     116.00258964       9.16317720
C       83.87257109     116.72659393       8.63980535
C       83.90574788     118.16350016       9.18397106
C       85.12894410     118.78743656       8.45916800
C       84.96010488     120.31492754       8.47964498
C       86.16914888     120.92571949       9.22595305
C       86.23316794     122.36137374       8.71675750
C       87.49125219     123.06545218       9.30053989
C       87.53206040     124.46491256       8.65411099
C       88.82305156     125.25197176       9.11752619
C       88.65135128     126.67865446       8.22681233
C       89.96896673     127.52073882       7.88045663
C       89.84489142     129.16667742       7.82112947
C       91.15792591     130.04022203       8.08240080
C       90.97241359     131.53081114       8.76653151
C       69.36505896      89.49944963       9.04825352
C       70.65129493      90.18580135       8.51175616
C       70.65007322      91.71731823       8.85663931
C       71.98718401      92.46449899       8.42933241
C       71.96812521      93.95901990       8.90043537
C       73.27314158      94.73465034       8.49081629
C       73.27102708      96.20706229       9.05853218
C       74.57586136      96.95426277       8.56517131
C       74.60202818      98.43075203       9.06670159
C       75.90745278      99.16805676       8.58665879
C       75.93139712     100.64785729       9.10497723
C       77.23402015     101.37453158       8.62261496
C       77.26055099     102.85046669       9.15299569
C       78.56097033     103.56341385       8.64348423
C       78.59752702     105.03837488       9.15961648
C       79.89942398     105.74074759       8.63330912
C       79.94051829     107.22011834       9.12786385
C       81.24647400     107.91803022       8.60120645
C       81.28638369     109.40332889       9.08312039
C       82.59603100     110.10452940       8.57255125
C       82.62923309     111.59413356       9.05893373
C       83.92989989     112.30912558       8.56715258
C       83.94564975     113.79802978       9.07246958
C       85.24170103     114.50824265       8.58292809
C       85.24769932     115.98665134       9.09817510
C       86.56333415     116.68578577       8.59447621
C       86.56527271     118.16476388       9.09020793
C       87.84754896     118.89244688       8.63854119
C       87.84859963     120.31352471       9.25331017
C       89.09309983     121.04921498       8.68580140
C       89.14683837     122.46641140       9.26229721
C       90.34798341     123.18703807       8.60270297
C       90.36275711     124.62100913       9.12980824
C       91.39660612     125.42939443       8.45229324
C       91.05848728     126.98580391       8.79477741
C       73.20533912      91.76284350       9.05472694
C       74.50578468      92.48904592       8.57259143
C       74.51614238      93.99227694       9.05180382
C       75.82097147      94.71514299       8.57323900
C       75.84055315      96.20303268       9.07731889
C       77.14401596      96.92334052       8.58785344
C       77.17116538      98.40653087       9.09952034
C       78.47467012      99.12161544       8.60645384
C       78.50480939     100.60140914       9.12170000
C       79.80771142     101.31145280       8.62052537
C       79.84021292     102.78896323       9.13311319
C       81.14438281     103.49349647       8.62264288
C       81.17956698     104.97146348       9.12731102
C       82.48459780     105.67227265       8.61218295
C       82.52080895     107.15381592       9.10868528
C       83.82546267     107.85611900       8.59700455
C       83.86085748     109.34160054       9.09171764
C       85.16270302     110.04993072       8.58624027
C       85.19459759     111.53852148       9.08543886
C       86.49387526     112.24668755       8.58539138
C       86.52072080     113.73274481       9.09195103
C       87.82077633     114.43767804       8.59178058
C       87.84719593     115.91798653       9.10469585
C       89.13744663     116.62818812       8.59230190
C       89.15952835     118.10843887       9.10546793
C       90.43551939     118.81090936       8.57488415
C       90.45249250     120.28678170       9.08487126
C       77.04537702      92.45421955       8.61404291
C       77.07426234      93.95179485       9.10189237
C       78.37544675      94.66520470       8.60273006
C       78.40573597      96.15331724       9.10315503
C       79.70879365      96.86504341       8.60531995
C       79.74119282      98.34770855       9.11299085
C       81.04565131      99.05691209       8.61226910
C       81.08002051     100.53611434       9.12103527
C       82.38520495     101.24228955       8.61489742
C       82.42019969     102.71912701       9.12163085
C       83.72613681     103.42048745       8.61161402
C       83.75913551     104.89948494       9.11436303
C       85.06229396     105.60060883       8.60437930
C       85.09449337     107.08407456       9.10520851
C       86.39387215     107.78923829       8.59709648
C       86.42773866     109.27603191       9.09782011
C       87.72683609     109.98319629       8.59254973
C       87.75971674     111.47000546       9.09448647
C       89.05847257     112.17634745       8.58909806
C       89.09083719     113.66048525       9.09316556
C       90.38661480     114.36582529       8.58071516
C       90.41804183     115.85012099       9.08235106
C       79.63482032      93.89582212       9.11855434
C       80.93633508      94.60693368       8.61332329
C       80.97271357      96.09261782       9.11525863
C       82.27693688      96.80272598       8.61201891
C       82.31490043      98.28424926       9.11708766
C       83.62159078      98.99319159       8.61083428
C       83.66200396     100.47073140       9.11446354
C       84.97030510     101.17201498       8.60525268
C       85.00773079     102.64486703       9.10715633
C       86.30736314     103.34268753       8.59601403
C       86.33768843     104.81821654       9.10208596
C       87.63186412     105.52214642       8.59711048
C       87.66073243     107.00798555       9.10145375
C       88.95676854     107.71743368       8.59699928
C       88.99142824     109.20570669       9.10013536
C       90.29006720     109.91410579       8.59381992
C       90.32479084     111.40044132       9.09442025
C       83.54333750      96.03259142       9.11797168
C       84.84948820      96.74406321       8.60994321
C       84.89616892      98.22671819       9.10999363
C       86.20279623      98.93360704       8.59934904
C       86.24139408     100.40369692       9.09841091
C       87.53560312     101.10355621       8.63397915
C       87.57154544     102.57121225       9.08858215
C       88.86137785     103.27153317       8.63127050
C       88.89499016     104.74326565       9.09229005
C       90.18572913     105.44709221       8.59158290
C       90.21932607     106.93362472       9.09870970
C       87.46359698      98.16736174       9.09509114
C       88.75103712      98.86759491       8.63313477
C       88.78491347     100.33949684       9.08385735
C       90.06945168     101.04398509       8.58230440
C       90.11126698     102.50903668       9.08186679
F       46.78571961     107.69974688      12.38121926
F       46.48592370     103.38628208      12.28906612
F       63.35981251      84.73954545      12.54506526
F       67.23302116      86.68221757      12.50635626
F       47.55026344     125.52595791      12.60191944
F       47.43755624     121.13447786      12.58357173
F       47.31257356     116.65762755      12.56474758
F       48.65925960     118.86034426      12.57306367
F       49.98732118     121.06834487      12.58239977
F       51.30844330     123.25335538      12.58846967
F       52.63764643     125.42709121      12.58699164
F       53.98240438     127.59764773      12.57764917
F       55.34586833     129.77906383      12.56610775
F       47.13212541     112.18362658      12.53889208
F       48.51182399     114.40629622      12.57526930
F       49.87531043     116.60391307      12.57986260
F       51.22116539     118.79128153      12.58003595
F       52.55399447     120.98071041      12.58108038
F       53.89218790     123.16706227      12.58074342
F       55.22914471     125.35669587      12.57685394
F       56.57924907     127.54071027      12.56761583
F       57.93141941     129.72228995      12.55600286
F       59.29421742     131.88512076      12.54690307
F       48.24417749     109.94041357      12.55986893
F       49.67903478     112.18224833      12.61526241
F       51.08808863     114.37162304      12.60350133
F       52.45013949     116.53919900      12.59064082
F       53.78727006     118.72245015      12.58456036
F       55.11958211     120.91124145      12.58338382
F       56.45546480     123.10364296      12.58253780
F       57.80057513     125.29638622      12.57610038
F       59.15756746     127.48734459      12.55911278
F       60.52987000     129.66717037      12.52742031
F       61.91947315     131.80481354      12.48572144
F       63.28918643     133.90673981      12.48314165
F       47.84189391     105.50618434      12.48024440
F       49.28861980     107.71361361      12.65769493
F       50.75153252     109.97236703      12.71172164
F       52.27267646     112.20234721      12.66733021
F       53.69204179     114.28855079      12.60970789
F       55.02218889     116.46180283      12.59160708
F       56.35153553     118.64816822      12.58799830
F       57.67968381     120.84359930      12.59219105
F       59.01672102     123.04374708      12.59292839
F       60.36880575     125.24316513      12.57907448
F       61.72860948     127.44267823      12.54316709
F       63.14434225     129.61438427      12.44921752
F       64.55384925     131.68818371      12.34127388
F       65.90148935     133.77195587      12.31602759
F       67.24146337     135.85419820      12.38143790
F       47.35314551     100.96516684      12.39572883
F       48.72103794     103.26853088      12.73608154
F       50.25410169     105.49622071      12.91315662
F       51.71220720     107.78814598      12.98453787
F       53.16318291     110.06798484      12.90729612
F       54.95343581     111.97833329      12.62364191
F       56.25089181     114.18717630      12.59495090
F       57.58268159     116.38517872      12.58489747
F       58.90493081     118.57464887      12.59622396
F       60.22848522     120.77827998      12.61089659
F       61.57116035     122.98660152      12.61218316
F       62.92557837     125.18364223      12.58999619
F       64.27125074     127.41653802      12.54227086
F       65.74838028     129.46459466      12.29653769
F       67.07885857     131.52889279      12.13993890
F       68.37125275     133.61919697      12.12895121
F       69.76552701     135.68196986      12.27561940
F       70.75448913     137.92791471      12.71308099
F       72.85847012     139.68224349      12.66899348
F       46.99576238      96.48928438      12.43996288
F       48.37399399      98.48232174      12.28504128
F       49.55075900     100.28992201      12.46763738
F       50.62612715     102.12831881      12.82121395
F       51.96615551     104.02541373      12.86859821
F       53.35168311     106.24191275      12.96742370
F       54.82277511     108.58386002      12.88642562
F       57.32244087     111.77179673      12.53111071
F       58.77908884     114.17209991      12.57925146
F       60.14135773     116.29211139      12.58462675
F       61.43872531     118.49446387      12.62037476
F       62.75388932     120.71548223      12.64977050
F       64.13188504     122.90749412      12.63533970
F       65.45310353     125.02785513      12.65367789
F       66.92657703     127.00459455      12.62431139
F       68.20981194     129.07126277      12.37435450
F       69.44956555     131.09514693      12.26528299
F       70.65972033     133.08613990      12.29592027
F       72.11418805     134.66539602      12.56547333
F       72.39921698     136.66723437      13.13726670
F       74.30645263     137.63895341      12.99081412
F       75.63068921     139.63320761      12.73799951
F       76.95900377     141.67466115      12.60346992
F       46.76075999      92.07032908      12.50516141
F       48.15198129      94.29215403      12.44104001
F       49.65009578      96.51258664      12.26928394
F       51.59596328      99.59132612      12.34364247
F       52.90178707     101.78539313      12.50746753
F       54.32059004     104.02038371      12.65790385
F       55.70286300     106.30192926      12.68515573
F       57.06196015     108.70872823      12.56885985
F       59.54830267     111.97800582      12.66220791
F       61.41156672     113.93355345      12.53644396
F       62.65984102     116.17807746      12.60276271
F       63.93542512     118.41217636      12.68244413
F       65.24911153     120.66114143      12.73836616
F       66.73515346     122.63652780      12.64482290
F       68.17730018     124.55284987      12.72802348
F       69.50094485     126.69746168      12.59361764
F       70.76304457     128.80258508      12.48209990
F       72.04720500     130.88965179      12.48129686
F       73.49796936     132.88156686      12.55190454
F       74.84603917     135.08240087      12.72159680
F       76.60313546     137.28436669      12.82298403
F       78.24916208     139.42042970      12.68077604
F       79.54985513     141.55044485      12.60327519
F       80.87527360     143.70338920      12.57420956
F       46.60739261      87.61619023      12.53511217
F       47.95423311      89.81953323      12.51568381
F       49.30521897      92.03890275      12.47496965
F       50.70744121      94.32143958      12.39417871
F       52.33079613      97.51771403      12.25774414
F       53.98334930      99.62795582      12.40721250
F       55.38962261     101.81214469      12.52588075
F       56.77678572     104.03696541      12.58414576
F       58.12114007     106.29797866      12.57836697
F       59.41058186     108.58049586      12.52018428
F       61.19584099     110.55711936      12.63765122
F       63.84233217     113.75740778      12.48444823
F       65.14421620     116.05755354      12.67464612
F       66.37399821     118.27819102      12.83727133
F       67.93047951     120.29721149      12.89173162
F       69.39442410     122.23204856      12.72719262
F       70.72097850     124.33186481      12.63891253
F       72.04541925     126.48939164      12.58633843
F       73.34960368     128.63313272      12.55914245
F       74.70632918     130.74526631      12.57568679
F       76.08830958     132.89583506      12.63178483
F       77.54747673     135.04780665      12.69274811
F       79.21851465     137.15115836      12.61714159
F       80.75742211     139.27189617      12.61172333
F       82.11622446     141.44319737      12.58898482
F       83.44846170     143.62214752      12.57175816
F       84.78359084     145.80744506      12.56517714
F       46.49020881      83.16255874      12.55526422
F       47.82694316      85.35741316      12.54499748
F       49.16580688      87.56067073      12.53415880
F       50.50290458      89.76260978      12.51305419
F       51.81272180      91.90552958      12.48874383
F       53.31891271      93.66852195      12.56149210
F       53.70422703      95.80389639      12.51680337
F       55.21144225      97.52281514      12.40917685
F       56.55452426      99.62166838      12.47290218
F       57.92501716     101.80725133      12.51991739
F       59.27965642     104.01993035      12.54040529
F       60.59909430     106.23558593      12.53224218
F       61.94830648     108.38355927      12.51546000
F       63.39551148     110.82147728      12.44852806
F       66.22721338     113.67040608      12.56532535
F       67.70293316     115.83957959      12.80770732
F       68.77793514     118.12900640      13.09803351
F       70.72571136     119.86832122      12.78689004
F       71.99552243     122.03004728      12.66306705
F       73.29879499     124.19389767      12.62128520
F       74.61691493     126.36182197      12.59618552
F       75.95254626     128.52071977      12.59252442
F       77.31796027     130.67436403      12.61217337
F       78.70777655     132.83918120      12.63472659
F       80.15125476     134.94315011      12.73621677
F       81.92957254     137.07990820      12.66619989
F       83.34401002     139.18278744      12.59042530
F       84.68025066     141.35819384      12.57052178
F       86.01208568     143.54907159      12.56485739
F       87.35002116     145.74283819      12.56724749
F       88.70685214     147.95116078      12.58071109
F       47.70620984      80.87811193      12.57380784
F       49.04896211      83.09523253      12.55753096
F       50.38368523      85.29512635      12.55126635
F       51.71745280      87.49834650      12.54786020
F       53.06542791      89.70327096      12.54056914
F       54.61364378      91.84231480      12.47033162
F       56.31192432      95.23743872      12.45215496
F       57.75463584      97.42881897      12.47977828
F       59.12738269      99.59651253      12.50181422
F       60.47780140     101.77846689      12.51690163
F       61.80766136     103.97170831      12.52882702
F       63.11760316     106.17038938      12.54244720
F       64.41882084     108.41323487      12.56603696
F       65.67035779     110.81123507      12.49809617
F       68.56913882     113.41778191      12.69678344
F       70.23261120     114.88099212      12.86040754
F       70.57885116     116.95169292      13.25372758
F       72.45061831     117.70986401      12.65342878
F       73.31051398     119.79370256      12.59850962
F       74.55578574     121.89976943      12.59455061
F       75.85775299     124.07780584      12.59506841
F       77.19221439     126.26343669      12.59348444
F       78.54934997     128.43553919      12.59328228
F       79.92321317     130.59325925      12.59763873
F       81.34620747     132.70281017      12.63638344
F       82.88379093     134.82072540      12.68998426
F       84.61063571     136.92703864      12.58360281
F       85.91518059     139.09162079      12.55411972
F       87.23678655     141.28202213      12.55645813
F       88.56854463     143.48252446      12.56226375
F       89.91411483     145.70140906      12.57424390
F       47.61831996      76.48170765      12.60037654
F       50.25663393      80.82436839      12.57038744
F       51.60816422      83.03251829      12.56206074
F       52.93817997      85.22457050      12.56764491
F       54.25731655      87.42932756      12.58293102
F       55.61753773      89.68373093      12.59367205
F       57.38283121      93.14426309      12.53351050
F       58.94217264      95.26453386      12.55163279
F       60.34599796      97.40128524      12.52418188
F       61.70494724      99.55397265      12.51255230
F       63.03688931     101.72480840      12.51832771
F       64.34849142     103.90362653      12.54194965
F       65.63160406     106.07592232      12.59162394
F       66.86579091     108.20479969      12.67162512
F       67.81523892     110.31127726      12.83961904
F       69.66587562     111.45666916      13.22832264
F       71.41836037     112.96384652      12.73019848
F       72.74364763     115.18977832      12.40604376
F       74.55740008     117.25247557      12.36659363
F       75.76935880     119.53276061      12.50866395
F       77.07224976     121.77503085      12.55894899
F       78.40869161     123.99382633      12.58073117
F       79.77047986     126.19139809      12.57903469
F       81.14967031     128.37008467      12.56113440
F       82.55434012     130.51867221      12.53420863
F       84.00236651     132.63946658      12.51875458
F       85.63017312     134.65933811      12.42476508
F       87.11229848     136.78497452      12.48903768
F       88.45078122     139.00444438      12.53329918
F       89.78629716     141.21947300      12.55433318
F       91.12240502     143.42883435      12.56581721
F       51.47456067      78.58012922      12.58009074
F       52.83099892      80.77490989      12.56589273
F       54.17261991      82.95539850      12.57089873
F       55.49073437      85.12266705      12.59674469
F       56.76463185      87.23890453      12.66626848
F       58.15089735      89.08913723      12.91411050
F       58.60530365      91.26943881      12.88396537
F       60.14674484      93.17566937      12.68938336
F       61.58039559      95.23888365      12.59045421
F       62.95096981      97.34555751      12.52676733
F       64.28319178      99.49045719      12.50676196
F       65.60035590     101.64566917      12.52146222
F       66.89402780     103.80487996      12.57084911
F       68.17211801     105.95108336      12.67166838
F       69.43253174     108.06882719      12.83894701
F       71.07344162     109.73712165      13.29766156
F       72.92063162     110.95969557      12.99240974
F       73.93152938     112.99555181      12.51783603
F       75.26496844     115.01393279      12.21317673
F       76.89452194     117.18151973      12.30123902
F       78.22602836     119.45873457      12.48102359
F       79.59170543     121.71576511      12.55703568
F       80.96396582     123.93331929      12.57364491
F       82.35228578     126.14124266      12.54693211
F       83.76298189     128.32350750      12.49107106
F       85.19669583     130.45420432      12.40647517
F       86.66606770     132.47063426      12.42052862
F       88.28902756     134.53034232      12.40656684
F       89.63254798     136.72633602      12.48852260
F       90.98536847     138.95089318      12.54341275
F       55.41195838      80.70425758      12.56354526
F       56.75543174      82.86405678      12.57882728
F       58.08232966      84.98964423      12.63423712
F       59.43727821      87.04112716      12.75171164
F       60.83040863      88.98624855      13.03596757
F       61.37069054      91.17540736      13.00753386
F       62.81859106      93.12991409      12.69653508
F       64.20637917      95.16170663      12.55659027
F       65.53850714      97.26602994      12.49296692
F       66.85910135      99.40666900      12.48250931
F       68.17059950     101.53449616      12.52272011
F       69.40146993     103.67759253      12.59634293
F       70.77497150     105.70445034      12.72819393
F       71.97926128     107.58314572      13.01421036
F       74.03710930     108.46497984      12.97588684
F       75.20134577     110.59460846      12.67043342
F       76.39119644     112.79057644      12.40219447
F       77.71851186     114.91502564      12.18141933
F       79.27296938     117.11906520      12.37439814
F       80.68775964     119.42056004      12.55703470
F       82.13584555     121.65254320      12.56826895
F       83.50918602     123.89273177      12.56360188
F       84.92004856     126.11968511      12.49564097
F       86.39623574     128.28401952      12.34530548
F       87.85985151     130.29182502      12.21415078
F       89.33102044     132.26945817      12.20789783
F       90.76713691     134.44918356      12.42634188
F       59.36889317      82.76329100      12.56070277
F       60.71935130      84.86406164      12.62654194
F       62.10153007      86.92001136      12.75980622
F       63.53264805      88.89301637      13.01979033
F       63.99771099      91.10133344      12.94904106
F       65.47179100      93.03505981      12.57374769
F       66.80131609      95.05529623      12.45542653
F       68.03536672      97.16205105      12.43601433
F       69.47971433      99.26265759      12.44243384
F       70.76398710     101.23485753      12.47109392
F       71.70946980     103.25021691      12.73981520
F       73.78354613     103.97759288      12.79209358
F       74.86463266     105.98127949      12.71792767
F       76.32727496     108.14515795      12.67799447
F       77.59652381     110.42013372      12.54255584
F       78.85053535     112.64338489      12.37651904
F       80.16647364     114.79235439      12.29883737
F       81.70799229     117.04693437      12.58823826
F       83.21360866     119.35948538      12.65062047
F       84.63696974     121.57626883      12.60390053
F       86.00621019     123.86596915      12.60688105
F       87.46051640     126.12846855      12.44753607
F       89.04728220     128.13882177      12.07674839
F       90.39534573     130.09392592      12.12401590
F       64.72515042      86.79830545      12.66730588
F       66.23777080      88.69275344      12.89746358
F       66.32859940      90.91128953      12.93966757
F       68.46702790      90.95162544      12.58338198
F       68.01897063      93.03435413      12.41648368
F       69.48244454      94.67144170      12.32353139
F       70.27830779      96.72339541      12.54893055
F       72.32402382      97.44728480      12.57636792
F       73.24152097      99.48373935      12.44906400
F       74.58670094     101.43327725      12.55199342
F       76.10049497     103.59785273      12.63469003
F       77.42417631     105.82953727      12.63558435
F       78.77178198     108.06450052      12.58086770
F       80.06126421     110.29009218      12.50354940
F       81.33802020     112.45923344      12.44841004
F       82.67423542     114.54249033      12.51340040
F       84.15341385     116.76931587      12.58802370
F       85.59094387     119.09128218      12.53351583
F       87.08245026     121.40993180      12.71677962
F       88.55500370     123.76728253      12.68370167
F       90.01694813     125.96872831      12.48736200
F       68.93157865      88.76508753      12.53661648
F       70.62400951      90.73044861      12.41013808
F       71.70014260      92.82993246      12.36345017
F       73.07191425      94.84505680      12.45128282
F       74.60124621      97.00860500      12.51133166
F       75.86706128      99.19251791      12.54011458
F       77.23221710     101.34700948      12.57241500
F       78.60862039     103.54911963      12.59214764
F       79.95583121     105.76464444      12.58264598
F       81.28182131     107.97449041      12.55007562
F       82.58982348     110.16409764      12.52055998
F       83.91597824     112.32454864      12.51687968
F       85.27421054     114.50153954      12.53605023
F       86.64623024     116.70292837      12.54465391
F       88.03444954     118.82650893      12.59827369
F       89.50770059     121.04680371      12.63531831
F       90.96100856     123.28374428      12.54461102
F       73.05865932      90.53585681      12.55325433
F       74.38634715      92.63987225      12.51895911
F       75.75107601      94.76466614      12.52162720
F       77.11261721      96.93571006      12.53637071
F       78.45784198      99.11273928      12.55654668
F       79.81395240     101.29700718      12.57042331
F       81.16531956     103.49370290      12.57281602
F       82.50522953     105.69148093      12.56264374
F       83.83045678     107.88530086      12.54695282
F       85.15509467     110.07211259      12.53617179
F       86.49282592     112.25234629      12.53562583
F       87.84509682     114.43425646      12.54083435
F       89.21866369     116.61181875      12.54122965
F       90.61345935     118.80830552      12.52292192
F       77.00541353      92.53997883      12.56238975
F       78.34766905      94.69474775      12.55236414
F       79.69026068      96.86898733      12.55540306
F       81.03889302      99.05096610      12.56253638
F       82.38526021     101.23832621      12.56743908
F       83.73161124     103.42447361      12.56622787
F       85.06790615     105.61831970      12.55892362
F       86.39175393     107.80997659      12.54963180
F       87.72469253     109.99617929      12.54288024
F       89.06574698     112.18401925      12.53928299
F       90.41839837     114.37702690      12.53054357
F       80.92840997      94.62225881      12.56351078
F       82.26949086      96.80437734      12.56237158
F       83.61463205      98.99097562      12.56714102
F       84.97678687     101.17099203      12.57379040
F       86.31207197     103.34865213      12.57686594
F       87.63692524     105.53079031      12.56561659
F       88.95411934     107.73496128      12.55331339
F       90.29037998     109.92877380      12.54418313
F       84.83899128      96.73999658      12.56786846
F       86.20696078      98.93443405      12.58009578
F       90.18650170     105.45248820      12.57232883
F       90.05515281     101.05621504      12.59911322
F       46.63076469      96.45681327       7.12351801
F       73.23460467      90.21264098       7.24463645
F       47.55409932     125.52126531       7.19905073
F       47.44757527     121.13326183       7.22129803
F       47.34876147     116.66435457       7.23552026
F       48.67839222     118.85632768       7.23924035
F       49.99939873     121.06142683       7.23254735
F       51.31760088     123.24518837       7.22583508
F       52.64424448     125.41721301       7.22435636
F       53.98353222     127.58835551       7.22777674
F       55.33941437     129.77727873       7.23227142
F       47.31514364     112.24069970       7.21729633
F       48.60205126     114.39761139       7.24808839
F       49.91059883     116.58649257       7.25121116
F       51.23766415     118.77848127       7.24853214
F       52.56556883     120.97119944       7.24485052
F       53.90276219     123.15591053       7.24289999
F       55.23516382     125.34142127       7.24063323
F       56.57168243     127.52480546       7.23610341
F       57.89895431     129.72042150       7.22726539
F       59.22424603     131.93917388       7.21933682
F       47.50194220     107.86867875       7.12773063
F       48.65556321     109.97497357       7.25560819
F       49.88426128     112.11557093       7.29461460
F       51.15100045     114.30756968       7.27760399
F       52.46623045     116.51193979       7.26199216
F       53.79729007     118.71123042       7.25528367
F       55.13338912     120.90260783       7.25398076
F       56.47171466     123.08715121       7.25316670
F       57.80725689     125.26823731       7.24689781
F       59.13463447     127.45192462       7.23051922
F       60.43463156     129.65099848       7.20141941
F       61.72968533     131.89975301       7.16392695
F       63.05564615     134.18262008       7.17162211
F       47.43825828     103.40547229       7.06796560
F       48.82908723     105.49894275       7.28032802
F       49.99209833     107.67595494       7.39596955
F       51.20346095     109.82132527       7.42164497
F       52.39906108     112.01039653       7.34975393
F       53.68531644     114.24860000       7.28128427
F       55.02344486     116.45195414       7.26253809
F       56.36269651     118.64990692       7.25888090
F       57.70674693     120.83680174       7.26305201
F       59.04888038     123.01561882       7.26400536
F       60.38162487     125.19244525       7.25030392
F       61.70235121     127.36301048       7.21523308
F       62.90344855     129.57214065       7.13189559
F       64.18811456     131.92411593       7.04645240
F       65.53260793     134.22742758       7.03835779
F       66.85455007     136.49693525       7.13085811
F       47.83662535      98.72406826       6.99045678
F       48.40472004     101.36895566       6.93775654
F       50.02709732     103.31022969       7.39212029
F       51.24804003     105.52320940       7.58498730
F       52.49680830     107.63750259       7.61674467
F       53.72258851     109.76000771       7.49932660
F       54.87400676     112.00177871       7.28476355
F       56.25093581     114.20759239       7.26211369
F       57.58995970     116.40326957       7.25732954
F       58.93873808     118.59551796       7.26762029
F       60.28831436     120.77192226       7.28248034
F       61.62398010     122.94331896       7.28510994
F       62.96513637     125.12766022       7.25759496
F       64.33406492     127.28165209       7.20449202
F       65.20985761     129.73204793       6.88405355
F       66.57794213     132.03828111       6.76219645
F       67.96647398     134.35836073       6.77837366
F       69.26668137     136.73896047       6.90070038
F       70.78968693     138.96208597       7.26154745
F       46.66598086      92.02195651       7.17778939
F       47.95213332      94.16347303       7.11571999
F       49.16331503      96.28423460       6.96089277
F       50.34293040      98.38415754       6.70013057
F       50.33174099     100.53572449       6.54443649
F       51.98452451     101.69617367       7.14473526
F       52.74399333     103.71383091       7.43157039
F       53.95304038     105.71517510       7.49692497
F       55.19165964     107.74661181       7.42376583
F       56.45286265     109.83081583       7.20992569
F       57.54713178     112.03529619       7.21014021
F       58.84452983     114.16492038       7.25350998
F       60.16438288     116.37483051       7.25693421
F       61.53079900     118.54780626       7.29300274
F       62.88559182     120.70182473       7.32319447
F       64.13470418     122.88014453       7.30942027
F       65.60201307     125.26680845       7.32783245
F       67.28764156     128.93016647       6.91419866
F       68.70977993     131.30371424       6.79063014
F       70.07357135     133.55022183       6.84912291
F       71.17921885     135.61097438       6.85849638
F       72.37387913     137.38503477       7.21478194
F       73.35897940     139.31663160       7.38802582
F       46.59841103      87.58977142       7.20597313
F       47.92709605      89.76583469       7.18726756
F       49.24519824      91.92087902       7.14839363
F       50.55401962      94.04598452       7.05979794
F       51.70387695      96.49547577       6.90643245
F       52.86098516      99.07585723       7.01127400
F       54.20140236     101.28720394       7.19965440
F       55.31696371     103.49390542       7.28950005
F       56.58832528     105.59731812       7.31714038
F       57.89254428     107.68552092       7.24112924
F       59.21233513     109.84000358       7.14754344
F       60.27755298     111.98219092       7.26464806
F       61.38157019     114.17808956       7.19989017
F       62.76622319     116.35394779       7.27524191
F       64.15197929     118.51016754       7.35712412
F       65.56373243     120.64046943       7.40398539
F       66.43294264     123.18812686       7.23667197
F       68.19862567     126.88578076       7.26465353
F       69.72531298     129.19000097       7.10878065
F       71.13722015     131.45878344       7.10162889
F       72.49777000     133.73855786       7.22441626
F       73.87984034     135.87818542       7.38168024
F       75.70637518     139.08077591       7.43471371
F       77.00488210     141.43994897       7.27920474
F       46.49383457      83.14762450       7.21742079
F       47.83197290      85.33481364       7.21562638
F       49.17197352      87.51839310       7.20523576
F       50.51058364      89.69475448       7.18598096
F       51.83416096      91.88831596       7.16282440
F       53.01969953      94.22175281       7.15334117
F       54.12350670      96.67469666       7.07097143
F       55.36578748      98.96887528       7.13509697
F       56.64613893     101.18982567       7.20361339
F       57.90736737     103.37098447       7.23921498
F       59.22520698     105.51911576       7.24112825
F       60.55312325     107.69012575       7.22989496
F       61.84672748     109.83209402       7.19426336
F       63.03448818     111.97621797       7.08138424
F       64.04599286     114.21017398       7.16284552
F       65.36961542     116.34647019       7.35820125
F       66.83001412     118.56305866       7.52888016
F       68.43549002     122.35260602       7.28136068
F       69.37526478     124.85016140       7.34600907
F       70.82577502     127.04446320       7.24653121
F       72.23631598     129.27409377       7.20770976
F       73.59693843     131.52141497       7.24157368
F       74.91615650     133.75853019       7.34273739
F       76.04915018     136.21863575       7.47463250
F       78.14340064     139.13900388       7.34688103
F       79.53019037     141.43273112       7.27653662
F       80.88095516     143.65142859       7.24579966
F       47.71092441      80.86720844       7.21117257
F       49.05852310      83.08188598       7.22131024
F       50.40369899      85.27423484       7.22206377
F       51.75309126      87.46004852       7.21908965
F       53.09097133      89.63965999       7.20816791
F       54.33212793      91.84696227       7.14448618
F       55.41194715      94.39271713       7.07014057
F       56.60711564      96.64897645       7.15925150
F       57.89053749      98.88884276       7.17687880
F       59.18209451     101.10099643       7.20309556
F       60.49626792     103.28898377       7.21743277
F       61.83250809     105.46787102       7.22451900
F       63.18002011     107.62750167       7.23456200
F       64.51298112     109.73915052       7.19128281
F       65.81363838     111.93331964       7.11446216
F       66.71356994     114.21647355       7.25355278
F       67.79159777     116.42211284       7.51312282
F       69.12930953     120.26883592       7.54041992
F       70.69726935     122.68537271       7.38898718
F       71.99882612     124.87229267       7.31838572
F       73.38234815     127.06358966       7.27398209
F       74.74957915     129.28162107       7.27139662
F       76.08735807     131.49792919       7.30519699
F       77.35537978     133.65135443       7.36214956
F       78.20449145     135.77319627       7.24923332
F       79.92290668     137.09834495       7.22179592
F       80.79060669     139.24899102       7.28683216
F       82.09261131     141.39773063       7.26179308
F       83.43577375     143.59877865       7.24276070
F       84.78157188     145.80001244       7.23579216
F       47.62169671      76.47550441       7.19751460
F       50.26382570      80.81837713       7.22051501
F       51.62562913      83.03023962       7.23054833
F       52.98037583      85.22460400       7.23905134
F       54.33847887      87.40813514       7.25499701
F       55.69672453      89.55775758       7.25589321
F       56.79212179      92.01144052       7.17385265
F       57.93159809      94.34023721       7.20454638
F       59.13804537      96.59015456       7.21182556
F       60.42676845      98.81906839       7.20197845
F       61.74206678     101.03533491       7.20467950
F       63.08110233     103.23979089       7.21912922
F       64.44043826     105.43534167       7.25123177
F       65.81616916     107.60357480       7.30252288
F       67.20256562     109.73241459       7.35062776
F       68.45609328     111.96613986       7.31080180
F       69.32267288     114.21701411       7.40243526
F       69.94848076     116.42921327       7.33052670
F       70.47194633     118.52608727       7.45452159
F       71.79863337     120.51124601       7.39095153
F       73.18904104     122.67405593       7.32526182
F       74.56451593     124.84852187       7.29634975
F       75.92794547     127.03637665       7.28561165
F       77.27412780     129.23618852       7.29140196
F       78.60201665     131.44504382       7.31565458
F       79.90359308     133.72413366       7.35573002
F       82.13125647     136.76347277       7.34909982
F       83.31187346     139.12660953       7.25804921
F       84.65120210     141.34577785       7.24161709
F       86.00037112     143.54700100       7.23562736
F       87.34815386     145.74279519       7.23102269
F       88.70783839     147.95065006       7.21806791
F       51.47730157      78.57509404       7.21780034
F       52.83600142      80.77936122       7.23205640
F       54.19181181      82.98164999       7.24216126
F       55.55601368      85.19387442       7.27074379
F       56.93087222      87.41828793       7.34894655
F       58.21859861      89.68659385       7.50162635
F       59.22437668      91.96733196       7.42380952
F       60.38467686      94.25750401       7.31606409
F       61.64640160      96.52180364       7.23902152
F       62.96492407      98.76890071       7.20563952
F       64.30298531     100.99605974       7.20488163
F       65.65952234     103.21546449       7.23702948
F       67.03896540     105.43553289       7.30709279
F       68.43518740     107.66850160       7.45285834
F       69.75228743     109.97379492       7.72141541
F       70.88529608     112.17444675       7.50909797
F       71.99967023     114.11552152       7.06208252
F       72.07618778     116.33443872       6.97695011
F       73.02345859     118.43179518       7.29069650
F       74.39637561     120.50667835       7.27228326
F       75.76853174     122.63868141       7.27824658
F       77.13006247     124.79825775       7.28126232
F       78.47412455     126.97663038       7.27983621
F       79.79916350     129.17251192       7.27670167
F       81.10097765     131.39147373       7.27544376
F       82.25707231     133.73217612       7.32706992
F       84.49876473     136.83496948       7.24617038
F       85.86235504     139.10362973       7.22574877
F       87.22178124     141.29903808       7.22774043
F       88.56825841     143.49039988       7.23072464
F       89.91844342     145.70343958       7.22437329
F       55.39854999      80.72888905       7.23434578
F       56.74801722      82.95216328       7.25126103
F       58.10561569      85.20057234       7.31244264
F       59.43765941      87.47635780       7.45689016
F       60.67450769      89.68344910       7.65822512
F       61.59709687      91.90992979       7.53288100
F       62.83456577      94.20310001       7.31686711
F       64.15673273      96.51473646       7.22247715
F       65.51483420      98.74659769       7.18599054
F       66.86090487     100.97864033       7.20052515
F       68.22649446     103.22887528       7.26395522
F       69.60667779     105.48304781       7.39168865
F       70.91592107     107.80783753       7.58401301
F       72.12603576     110.04469190       7.67414787
F       73.40174174     112.16252825       7.31791966
F       74.70277123     114.19382535       6.88500742
F       74.39685550     116.43007601       6.92956582
F       75.67066793     118.41017428       7.14026015
F       77.01786903     120.46400518       7.21401822
F       78.36217333     122.57528391       7.25775866
F       79.69392871     124.72460054       7.26933690
F       81.01596665     126.89546862       7.25621424
F       82.31480553     129.08693478       7.22731475
F       83.56899603     131.26190014       7.20182091
F       84.46289650     133.43225846       7.05834861
F       86.19963450     134.77933290       7.00607021
F       87.13839923     136.93134947       7.16347374
F       88.45893436     139.06424773       7.20601610
F       89.80022312     141.24156859       7.22534769
F       91.13511844     143.43444345       7.23193581
F       59.27573366      82.93442715       7.23718821
F       60.61442427      85.20995367       7.31502239
F       61.91923950      87.47705545       7.48213643
F       63.13158503      89.63420284       7.66921278
F       63.92612657      91.84552313       7.50224370
F       65.29497788      94.34026836       7.24625939
F       66.71305248      96.50801615       7.16637908
F       68.08737392      98.73872398       7.16343729
F       69.40503908     101.02863082       7.16178041
F       70.79365940     103.29378575       7.27940924
F       72.09777922     105.62253646       7.37763518
F       73.37541456     107.96989516       7.59026594
F       74.67068779     110.08478988       7.41694481
F       76.04096091     112.17931923       7.14046910
F       77.41913132     114.17430728       6.81362614
F       77.01047216     116.39054647       6.83074030
F       78.33714712     118.33260270       7.11300825
F       79.64652118     120.36573309       7.21979697
F       80.93920674     122.48070687       7.26592174
F       82.25155142     124.63126235       7.25571669
F       83.53686630     126.79392048       7.20653992
F       84.81106524     128.99533207       7.12649545
F       86.01681485     131.31521181       7.06996988
F       88.46926396     134.59963811       7.08023610
F       89.73119796     136.83163541       7.16257939
F       91.05093368     138.99306672       7.21551774
F       63.10184309      85.21344130       7.25282566
F       64.39537346      87.47214517       7.41672609
F       65.62084293      89.68546495       7.52254457
F       66.04197801      92.20980176       7.23269061
F       67.87510542      94.27778325       7.07656711
F       69.31244899      96.56535950       7.10541577
F       70.63793918      98.80894788       7.06194708
F       72.01839944     101.17031850       7.10817957
F       73.37365296     103.56446739       7.37339872
F       74.70859851     105.86752344       7.39159693
F       75.98560766     107.99281409       7.37182186
F       77.34418973     110.09339199       7.23829510
F       78.73207114     112.18184486       7.08644237
F       80.12147045     114.15536201       6.89086786
F       79.77589249     116.35478207       6.91173834
F       81.09623987     118.16757674       7.22930410
F       82.26342569     120.20966996       7.27797964
F       83.47555944     122.44787506       7.28270389
F       84.84152991     124.50662383       7.23212691
F       85.99474311     126.67485055       7.12653871
F       87.27382806     128.90433226       6.95921680
F       88.24834798     131.30683694       6.78395343
F       90.10599832     132.55643891       6.82227692
F       91.08054682     134.65343677       7.12016927
F       66.83585260      87.41182551       7.29153461
F       68.04392549      89.29689673       7.08508294
F       67.87793830      91.36254260       6.66089723
F       69.72932276      92.43686159       6.80734978
F       70.67821174      94.55820397       6.97517985
F       71.98602012      96.82703408       7.18102226
F       73.39780038      99.14258756       7.13196393
F       74.72475095     101.47725478       7.21456098
F       75.96339412     103.65538745       7.30912609
F       77.28219144     105.80384496       7.30964114
F       78.62450299     107.94177343       7.25927196
F       80.00586175     110.08153912       7.18290159
F       81.43062535     112.24889460       7.13083377
F       82.69766053     114.62192532       7.17452204
F       83.81014723     116.72364265       7.26705321
F       85.19157647     118.48109427       7.13595598
F       84.89256602     120.63606378       7.16051266
F       86.30861426     122.33995426       7.34963580
F       87.53484707     124.25603978       7.30006767
F       88.27924521     126.32880226       6.95854478
F       90.24576541     127.26131341       6.56984115
F       89.56566294     129.37686212       6.50050222
F       91.59513341     130.26458253       6.80575401
F       70.65938095      90.11163483       7.12917042
F       72.12301743      92.46649608       7.06016436
F       73.36567874      94.78111645       7.11738781
F       74.60246972      96.96830155       7.18644049
F       75.93168655      99.18901314       7.20773849
F       77.25080619     101.39789360       7.24404405
F       78.55396889     103.57473472       7.26486456
F       79.88482159     105.73247227       7.25475096
F       81.24013792     107.89399885       7.22289470
F       82.60946866     110.07649170       7.19466264
F       83.95318144     112.30851074       7.18845605
F       85.25704018     114.51258484       7.20321302
F       86.61673714     116.64407063       7.21891243
F       87.84535899     118.98444081       7.26171990
F       89.01689427     121.12153067       7.31371561
F       90.23839002     123.17169550       7.23283846
F       91.29747072     125.27568737       7.10138035
F       74.55856599      92.47393464       7.19469393
F       75.86061208      94.71728403       7.19488863
F       77.16362004      96.93086118       7.20917897
F       78.48403764      99.13039598       7.22764199
F       79.80780673     101.31884595       7.24170561
F       81.13920326     103.49400112       7.24383054
F       82.47993623     105.66474012       7.23341643
F       83.82593201     107.84620771       7.21830137
F       85.16925370     110.04380172       7.20752313
F       86.50041549     112.24594535       7.20655684
F       87.82595248     114.43796401       7.21326642
F       89.13669359     116.63738277       7.21353712
F       90.40800841     118.81442675       7.19540112
F       77.06014486      92.43943602       7.23550098
F       78.38822395      94.66177074       7.22395423
F       79.71677422      96.86695813       7.22640561
F       81.04699085      99.05968057       7.23330635
F       82.37880137     101.24284150       7.23589997
F       83.71999927     103.41684097       7.23234648
F       85.06089382     105.60007088       7.22510030
F       86.39354828     107.78917185       7.21812799
F       87.72867627     109.98167366       7.21360355
F       89.05822826     112.17558949       7.21016559
F       90.38252014     114.35996208       7.20193990
F       80.93842966      94.60385233       7.23437990
F       82.27682901      96.80203835       7.23298660
F       83.61568172      98.99252050       7.23091622
F       84.97273183     101.16845886       7.22391978
F       86.30765466     103.33957754       7.21459225
F       87.63617933     105.51689171       7.21576418
F       88.95582425     107.72007778       7.21708354
F       90.29013611     109.91249146       7.21478007
F       84.83975444      96.73859457       7.23002216
F       86.20685429      98.93332848       7.21745259
F       90.18838977     105.44036396       7.20969424
F       90.05701162     101.05044620       7.19624451
