C  F 
 1.0000000000000000
    32.2101828416974101   15.6211084972109759   -0.0000291540653507
     2.5753251919832612   35.7084620142410074    0.0002110582872769
    -0.0000832931290402    0.0001321531800599   19.7376659523044857
 C   F  
 772 386
Cartesian
  1.9481753603132952 29.8113254526562983 11.0919465297102295
  2.1880841568588334 31.2799906655540205 10.6138150459855432
  0.5071549057690297 11.2017748060997846 10.6947679508423761
  4.0140549901226352  1.8725332695009416 10.6404056383188390
  5.3997949519529591  2.3994432221214490 11.1306079284799004
 22.2568208771428999 10.4509325744017421 10.6893943267036811
  2.4511997574018389 34.2266422788772289 11.1455320950232135
  3.5225017591816976 31.9242593745330687 11.1492173026560550
  3.6702762813592815 33.3919081252644006 10.6346476886571910
  5.0059049756652749 34.0146326080212660 11.1444445593512977
  5.1304094212741118 35.4932498631137534 10.6394592877727803
  6.4775780822274642 36.1034509651570445 11.1315928212819824
  2.7998324323747097 27.4721147480594219 11.2995011450904457
  3.1880319058053042 28.9372427271862485 10.7113771996336453
  4.4273243662913329 29.5831124501461460 11.3554128540252819
  4.7337591990824199 31.0579318179264732 10.6880519889634762
  6.0694888150641377 31.6565266875834226 11.1325019188491670
  6.2198344629099767 33.1618843735508548 10.6437674286895749
  7.5435009954210468 33.7640603873990202 11.1706487554998901
  7.6890670290362353 35.2459040797883176 10.5957188244150320
  9.0616949504942941 35.7345071063353856 11.0399067699536086
  9.1854565410781639 37.2764279958967109 10.5274457700470769
 10.5666258413528489 37.7165330477999490 11.0049176370665673
 10.7371860194124444 39.2755947269728622 10.6511600915936828
 12.1812312515468033 39.6045272157607471 11.2212828100185114
  1.8265942908888897 22.9812988308492656 11.1058998654215149
  2.0541716541153030 24.3997516200988755 10.5547016972582473
  3.6500166344733946 24.9097160936938415 10.5791223243331540
  3.9575373251145720 26.4087157096136664 11.2848902478008384
  5.2615486853845645 26.9893107178405103 10.6836442293162488
  5.5875665495103188 28.5278020144106712 11.3168579071653053
  6.7954566861833809 29.1257406509903731 10.5431647951016085
  7.2159555771499919 30.7873393520254552 10.5349969378995638
  8.5108453749667490 31.3028949349017900 11.1495573255656275
  8.7229743291467798 32.8371124246755244 10.7244943448546568
 10.0880333712841086 33.2193765180305292 11.2911507779083848
 10.2675654835527972 34.6237712161736937 10.6694355049285488
 11.5783585988909010 35.2177119896022646 11.1542545969940186
 11.7208735503390571 36.6466760759473331 10.5673459275868815
 13.1016926578680639 37.1974323137830609 11.1432254452781816
 13.2735265524959161 38.6131921221501315 10.6532533891812662
 14.8684027050593510 39.1176061224549585 11.1017005931095856
 15.1658538249987096 40.5226319238777180 10.6303002855879534
 16.5223710190173669 41.1247575756510599 11.1586544124309341
  1.3643760040449489 18.5751839889721566 11.1242892346956985
  1.4845538923662807 20.0480529923039903 10.6036162562377303
  2.8428737900697869 20.6533356392801117 11.1148212630861067
  2.9988153683056673 22.1237563784121711 10.6339991814990693
  4.4919311120088725 22.5967464414356805 11.2519679825489369
  4.8312968046928333 24.1158555491991855 11.2494789514047131
  6.2748174905745353 24.6240193925404895 10.5690513062952238
  6.4831228856053595 26.1108027309226749 11.0871511989306430
  7.8127982247501606 26.7271377059836475 10.5379166623790255
  8.0047487267162794 28.2813580855661435 11.0171230023475157
  9.3187678054159218 28.8701103710669607 10.4391344116856075
  9.6742551527388265 30.4603602546599106 10.5918930580402009
 10.9930087694886929 30.7017884894383144 11.2844164996504457
 11.3087237402342460 32.1779547683717482 10.8290701403140819
 12.6109468351987513 32.7897580182579063 11.2912235767933797
 12.7869302809687433 34.2614226460778539 10.7325835044133662
 14.1239350616236301 34.8668727727206900 11.2564088229854598
 14.3131729236944558 36.3382416818219411 10.6987699916437471
 15.7559438501368856 36.8408459175737946 11.2485218715351749
 16.1362823542995848 38.2206400259523775 10.6964921821962822
 17.5036706588459197 38.8202177651695095 11.2003557262212414
 17.7416912976929559 40.2671214496319436 10.6772402347647262
 19.0821081209497976 40.9070201833922198 11.1903438840725133
 19.2296364297170363 42.3700498583594722 10.6577184963227367
 20.5632867542970388 42.9923245210756733 11.1669451248946086
  0.9483804300892749 14.1686725639161875 11.1477660067634652
  1.1011548573354915 15.6306031805420833 10.6323288085783982
  2.4456599334255804 16.2478757770143076 11.1312393681598749
  2.5794857947704912 17.7265143451202576 10.6173523256544833
  3.9316202045746054 18.3407253869875824 11.1048433015472661
  4.0616359561635402 19.8162479244122558 10.5937249392590900
  5.4703188982430992 20.3595582717873924 11.0667845271764946
  5.6411273320152509 21.8516256718747037 10.5311892071578779
  7.2616766247866149 22.2949959135824223 10.5392580334562211
  7.4747997625879083 23.7645894553234882 11.0127024675508469
  8.8507274157854177 24.3235278372080934 10.4350122864454420
  9.0105777077173350 25.7716712659534224 11.0015793071257395
 10.3144149623887902 26.3899246131754985 10.4764676215533488
 10.4471000512119119 27.7796254368493614 11.1807225946814075
 11.9323456297468997 28.2428488670413138 11.2853821033989021
 12.0193215827752038 29.6670486846394112 10.6869089804932127
 13.4232275999488451 30.2919857871225169 11.1351341468785634
 13.7596924433701577 31.8829197177932464 10.7737761493298052
 15.0704041482519600 32.4185663883826720 11.3437786025571778
 15.3148964067285398 33.9682139243970909 10.8319756971155101
 16.7104211593520695 34.4836220365664943 11.2491952047734429
 16.9141583830492799 35.9669108354383908 10.7256087993861442
 18.3073451758750494 36.4718598981651567 11.2628888303836128
 18.7326087918448430 37.9076405029311019 10.7248365645986752
 19.9778714453590673 38.5474898908744592 11.3625689054697521
 20.2910279338453137 40.0315735805344417 10.7229557955330499
 21.6289974812037116 40.6260525367466414 11.1725673070905440
 21.7825069647552105 42.1323289400941476 10.6851354765942848
 23.1083079886813927 42.7221917754851219 11.2269286851382741
 23.2663347860263947 44.2006160033470721 10.6638191919266365
 24.6697395223002687 44.6333711801441808 11.1320846281049128
 26.2455395761274417 46.5222905609760531 11.2856225739521356
  1.7842005820265425 11.8404231935211630 11.2893524856528025
  2.1403233351340489 13.2857233896072078 10.6448464898931370
  3.4857441022396345 13.8732423122919482 11.1003042258287667
  3.6517627594638449 15.3791577728146471 10.6241208515496339
  4.9692379039123518 15.9776907924150784 11.1654070810219519
  5.1267664521892709 17.4593530440221123 10.5817420209224942
  6.4866021573824160 17.9328185653716723 11.0632914158097382
  6.6554138585739828 19.4833178935157285 10.5858852855176284
  8.0095659369074266 19.8221480471138989 11.2843127209158638
  8.1579151167350048 21.4150672524737864 11.4490440107305105
  9.6705275118491212 21.8948903799919954 11.5041520551605725
  9.9960032389698501 23.1760166326879968 10.6460243403913033
 11.3315770069744293 23.7984053387451588 11.1484403366618938
 11.5241394995597712 25.1795428360666413 10.4998566609452428
 12.8458555843848341 25.7500155093215533 11.1067723678480199
 13.0103404691084510 27.2106711820728506 10.6495187742352115
 14.3665212710726795 27.8084285284023274 11.1578514705835143
 14.5036142674466486 29.3029339960159376 10.6642297664200019
 15.8687060394692985 29.9138591595161287 11.2213514644773387
 16.0740762264313091 31.4066687660856552 10.7676709443158032
 17.5046587375324449 32.0159849340264202 11.1421476664324164
 17.6346605986979164 33.4611938592554523 10.5416820782758407
 19.1677850434201282 33.8936089892435177 10.4042027772582468
 19.4568402597335606 35.3572345678225872 11.1607405764796823
 20.7727858981702589 35.9579531497897449 10.6165216671123499
 21.1124426277663630 37.4785724419516697 11.2984639257280612
 22.3422433198451920 38.0911312586344906 10.5694034446700424
 22.7758456956168729 39.7579533577099653 10.5760353090291979
 24.0797296270382368 40.2681418691117798 11.1945555542410258
 24.2958517557877407 41.7947216611580146 10.7805243424980493
 25.6930226115991971 42.1421887032206470 11.3281142259419365
 25.8813700604324453 43.5452315113901705 10.7610572641011100
 27.2493236239265215 44.0747432539309827 11.2597475969575793
 27.3670922061502822 45.5143281000536604 10.8136066059032014
 28.8802952448453105 46.0420594376787378 11.2716552853525762
 29.2288350140898814 47.4232227245090812 10.7205483454653159
 30.6225474867439651 47.9766988877287019 11.1666283418196191
  0.8402401939903902  7.3440843414098360 11.1716527862579511
  0.9898104491444090  8.7723136074301689 10.6099322909358005
  2.5446930265420851  9.2577672258910724 10.4557439659424887
  2.9260195156464106 10.7829300630607623 11.1907476459982060
  4.1971442878102856 11.3578001198761989 10.4849596824910059
  4.6409861700290822 13.0066601234955339 10.5019513374507323
  5.9320280392494773 13.5273970776391383 11.1544769779301607
  6.1621265461907857 15.0564985193813285 10.7372968193965264
  7.5288671070696722 15.4509128964195224 11.3250947531201405
  7.7165291488521017 16.8431021493439452 10.7110531174873671
  9.0519669669382701 17.4113256312435283 11.2087726803453869
  9.1757468853926856 18.8660811788507736 10.7004957313675000
 10.5569109520699680 19.4268464471656053 11.2611047508270978
 10.6947726977952424 20.8950096490827910 10.8664328878942538
 12.2108724144419440 21.4478113031603890 11.3077979258831576
 12.5429022498866320 22.8345224587998743 10.7320282267092395
 13.9300988592247208 23.4031114418337616 11.1770747409573250
 14.0713028391159121 24.8525620534891303 10.6415085673292449
 15.4171230226030751 25.4738667675542914 11.1572644504096523
 15.5590125921349127 26.9459604592905571 10.6535950116667646
 16.9005029461938037 27.5787524726666113 11.1741147662128935
 17.0381407122921260 29.0609371211363943 10.6815660721647490
 18.4165868523347669 29.6954735462446529 11.1591440539497331
 18.5978188826024500 31.1179445908754211 10.5396950354088457
 20.2473354884412196 31.5637135737859396 10.5246448028125403
 20.3533055458007333 33.0216634175249126 11.0020809544903173
 21.8075905413300468 33.6033246281475755 10.5551352937894158
 21.9808725277933377 35.0781839329938308 11.0861798616020621
 23.3362197253394612 35.7144697806231619 10.5970713991817043
 23.5397757905857503 37.2619079552453414 11.0726585765598315
 24.8752684747673953 37.8558678394816539 10.5134668261657058
 25.2447830049262052 39.4353050065446666 10.6291995380325659
 26.6057848993499491 39.6805978040471174 11.2701877224425271
 26.9211301241699026 41.1307167504334572 10.7906115517883912
 28.2875664779509073 41.7121798589381427 11.1633697568997370
 28.4268004546702677 43.1870437130177152 10.6691443492740401
 29.8583904338808352 43.7469739233012334 11.0913753169507601
 30.0010997557340637 45.1894162477506853 10.6309073911308509
 31.5637873541977818 45.6751245936326598 11.0039675204413694
 31.8287494309840753 47.1150300608341439 10.5764892070340579
 33.1781148255861140 47.7328980748560880 11.1144205414216355
 33.3232587365950721 49.2102124357928901 10.6346232625622381
  0.2416233694209757  2.9459855316296193 11.1630493329032756
  0.3729233848528088  4.4269826097785270 10.6662584647705412
  1.7498938279094602  5.0493846487906602 11.1570128755939493
  1.9326705452140780  6.4777792816412312 10.5590507670499818
  3.5805836753990508  6.9436400629923734 10.5693448856045027
  3.7094209846699213  8.4148426581529669 11.0383092206845763
  5.1525803069492326  9.0222248286770910 10.5586018115142153
  5.3827660414506662 10.5377437006549854 11.0153591041802166
  6.7184899752707699 11.1182510313717646 10.4475921403817846
  7.1410248337525362 12.6809149881757506 10.6554025821766896
  8.4153785768190978 13.0360607847693490 11.5143763130796781
  8.7718218402849146 14.4212185786627778 10.8779695342423341
 10.1207190417333948 15.0329017438950903 11.2651610013217951
 10.2556975201918021 16.4958084855300697 10.7211381213223369
 11.6148990258516829 17.1093263164355207 11.1973596401925199
 11.7608682724505531 18.5811707165721351 10.7101889610124541
 13.1835734890931491 19.1629782451678246 11.1644341115070631
 13.3295842591162614 20.5997455088476364 10.6797568260753533
 14.8801963694373089 21.0933764233332575 11.0540881773200024
 15.1398807896798555 22.5310666163732805 10.6086105583034165
 16.4847798785992588 23.1494360565292610 11.1506012999574153
 16.6350543095504655 24.6239624758807452 10.6586951496070022
 17.9715744623139706 25.2614901507324952 11.1782219532773137
 18.1057202735308280 26.7338133855960471 10.6712849715215903
 19.4458234851710792 27.3441062578432614 11.1995432364088980
 19.6002712662576144 28.8247936600696164 10.7189377212121961
 21.0397198162262491 29.2970550252396791 11.3552614010621706
 21.3897630454218906 30.8135854083032967 11.2782770068871354
 22.8854367003963119 31.2657251332964314 10.6044472041404276
 23.0350635402816799 32.7470996078913217 11.0702139232451291
 24.4118879142598679 33.3297880175374530 10.5672838144145409
 24.5255492510948407 34.8024893616943416 11.1169973407197755
 25.8822516923455410 35.4144073540957365 10.6912464965262295
 26.0038986936062386 36.8336985372640129 11.2770629318231403
 27.5301127816284961 37.2605716736346437 11.3326347274834571
 27.6167926503275964 38.6412390521582481 10.6501483072613929
 29.0678218176538934 39.2758501572370093 10.9796864308822695
 29.4229015557238114 40.8164029578027154 10.5243774578674696
 30.7846020792411856 41.4234897067225276 11.0113229114036724
 31.0154031833597799 42.9160272886188778 10.4813199307999927
 32.5186260828759472 43.3774606326459349 10.9374701860774817
 32.8330676750766841 44.8012229127918644 10.4799341652034350
 -0.0018340116440126 -0.0062383538475915 10.6458418182409833
  1.3341948234291967  0.6227803198039749 11.1525147784408070
  1.4476756749550261  2.1009777266297669 10.6512445907420066
  2.7891485757296883  2.7055248794578222 11.1728037445360506
  2.9353130422141303  4.1905708094955347 10.7153178225355283
  4.3601814561546117  4.6639197055570278 11.3884877918666803
  4.6980722149707761  6.1968013973556237 11.3480888185852642
  6.1967273085705132  6.6826374548288845 10.7184656561978517
  6.3485066701224833  8.1806156981996079 11.1145847902015280
  7.7428229596056433  8.7386510814153571 10.5959625643080617
  7.8897049541313029 10.2092759067774885 11.0295456274463639
  9.2710889593593588 10.7538240648553298 10.5510345068655020
  9.5893960997925003 11.9709995571571959 11.4556612908501254
 11.0437940857659651 12.6406428385256646 11.2814588974287968
 11.2898320858519927 14.1254828133309704 10.6909169222358997
 12.6190952254037487 14.7515847642763092 11.1810736364829442
 12.8113121472347853 16.2502076809691332 10.6828893606500355
 14.1598203119153201 16.8706412496871501 11.1882391067695988
 14.3614848081830466 18.3318848421203242 10.5961408195067666
 15.8613018658341094 18.7989959231505104 11.0308206393487893
 16.1558775814537121 20.2160566452709922 10.5475832477526872
 17.4730176238073689 20.8394830631410812 11.1566470442664585
 17.7078009707457014 22.3112472413298626 10.6678041317201089
 19.0338974016983329 22.9568867110068808 11.2099670464952794
 19.1945473981984911 24.4206866441729886 10.6838096866935803
 20.5405261419126468 25.0233426196506805 11.1929281398818254
 20.6733152910857072 26.4996453966497789 10.6952697716098744
 22.0455237365142231 27.0189750228857548 11.2143126572374126
 22.2213805805207265 28.5338504598682086 10.7273717199422265
 23.6784540657053384 28.8810695384847769 11.2679005665842649
 24.0637799289340784 30.4311263896207187 11.1630465676916337
 25.4854523704740288 30.9083353428781535 10.4149690607285272
 25.6472113390702106 32.3640207881095776 11.0186298355782046
 26.9722967964069937 33.0002714513707218 10.5530972549719415
 27.0561385296457004 34.3500402974707129 11.3307101864461064
 28.5551608888447710 34.8144597350962144 11.3708120332400924
 28.6141667904443153 36.2100438827216493 10.7326916495949742
 30.0020596821462533 36.8480532969513277 11.1049672919684621
 30.1284726638580302 38.3036925633435317 10.4891604315504257
 31.5498408314610437 38.9742727710623527 10.9620228980017167
 31.9372992575669770 40.5874225874449337 10.5299744842238674
 33.3344065882614586 41.0415358279565865 11.1351966192412419
 33.7855668295706479 42.4585487704393856 10.5825274344706930
  5.5402572781336143  3.9122005824838992 10.7518918517965947
  6.9958425901103620  4.3124979339164442 11.3511787399368362
  7.3467041450623798  5.8461039677914464 11.3292605495565404
  8.8048915520696358  6.3254904524091984 10.6249401363012339
  8.9021935824485592  7.7488241209043967 11.2849565658712692
 10.3884276359324836  8.2166533722002164 11.2835942001805858
 10.4618638242737845  9.5750993183835149 10.5493423352832529
 11.8426463800180564 10.1766080837057444 11.0777394391209523
 12.0093498530020106 11.6363296172154840 10.5849464238537898
 13.4387321496673984 12.2729955985737664 11.0495149952819052
 13.7710074593645171 13.8849295938830863 10.6767941181720314
 15.0775558186193699 14.4359216337639840 11.2686266702953493
 15.3425316698425096 16.0125606959930664 10.7687532448389121
 16.7500156962981883 16.4613379547602179 11.2586655638078170
 17.1301592117848678 17.8739095505287864 10.6723040421137778
 18.3641878858575716 18.4828245341936608 11.3600625351959899
 18.7153444086883134 19.9631356198222853 10.7799056652081475
 19.9365642837181447 20.6079927486955441 11.4250778011841643
 20.2456147554301999 22.0829531274604207 10.7689290315896802
 21.5672122607834602 22.6571693586322382 11.2411871925409237
 21.7446540637478840 24.1443038560988512 10.6757757963480913
 23.1102913513949098 24.5916198013593359 11.1380456298526482
 23.2515761774261520 26.1300878902976130 10.7189449935313785
 24.6381333702318344 26.4898797573072038 11.2677134876620180
 24.8157046765983935 27.9252717177657139 10.7359433583183677
 26.2034790976124619 28.4889613347310870 11.2600461747753826
 26.6280994816110592 29.7972312315213053 10.5514897721913190
 27.9497531771702228 30.4057854681199302 11.1491864214036216
 28.1806567925615035 31.8000560111131634 10.5469763692861775
 29.5122902092150881 32.3549862824873529 11.1498157652321535
 29.6718933042429676 33.8126573321604624 10.7023161426507407
 31.0372932294678066 34.4298009952974837 11.1531844972616376
 31.1475360212590218 35.9051525233708730 10.6144283960800170
 32.4940972881290264 36.5422657557528154 11.0949578133714084
 32.6475664287244882 38.0095556059497994 10.5418680047372728
 10.0393645734241836  5.2020825466814014 10.6238873691480649
 11.3813719886180849  5.7271355222245832 11.1715044975794164
 11.5434075376995118  7.1582543654219695 10.6771765200458848
 12.8983193563370140  7.7605429081559532 11.1480099253640077
 13.0145013483092633  9.2256479358411134 10.6105485402627160
 14.3580290528970540  9.8556689929879120 11.1132723184363762
 14.5228449118693845 11.3256416263952691 10.5761581283206691
 15.8818926351754168 11.9381053452053791 11.1523726961418603
 16.0850774097571190 13.4254300137826963 10.7056967601055799
 17.5136458463013760 13.9934252663962191 11.1309651551993269
 17.6465511348729933 15.4243284065004076 10.5899904594350858
 19.1930909426015468 15.8873564412105370 10.4935116497596912
 19.4820695939419402 17.3484178449304913 11.2964229104461680
 20.7853455194161860 17.9529337811965135 10.7599975431175547
 21.0646874446059513 19.4979111962556750 11.4216475296952158
 22.3351181510496417 20.0982756636126112 10.7370131543559015
 22.6867235847821682 21.7366478147394133 10.7022618749651599
 24.0378810247669072 22.0114112311763037 11.2824290595587584
 24.3458190891489252 23.4475859845986569 10.6968740046533082
 25.6580558107201853 24.0079952378461243 11.1777402492575018
 25.7942056519993592 25.4848229147239635 10.7240331025272617
 27.1643691126528815 26.0566090044677985 11.2761487590399554
 27.3472747077215388 27.5354703053966894 10.8448248618048648
 28.8144699143346656 28.0981088865377053 11.3516990310316483
 29.1901007089711158 29.4710286706978941 10.7704117208211514
 30.5884869855706221 30.0409481897656860 11.2149008411691913
 30.7430676651798223 31.4779201988815274 10.6659452879985075
 32.0981245010271223 32.1041988693546685 11.1481410440068966
 32.2301027134129328 33.5665887925788979 10.6297721038317832
 14.1007117666240269  6.8806251338449247 10.6438945693999241
 15.4389404986570753  7.5158558118881853 11.1512261184695198
 15.5641466619911863  8.9872398316018440 10.6312993231057415
 16.9112469507713072  9.6154114604245624 11.1384207755161473
 17.0594225279581693 11.0898582680450737 10.6225603255155185
 18.4453406401260160 11.7013995417646282 11.0998215933986764
 18.6140423678864089 13.1263201242392995 10.4994298665601171
 20.2686916669642905 13.5673654113308579 10.4908783326346438
 20.3742151421087243 14.9924713273751085 11.0478971275576114
 21.8156105656594193 15.5648051227309008 10.6202593050538372
 21.9733706344359803 17.0146895738156267 11.2153919106181323
 23.3310625747244345 17.6394900930431220 10.7980407320309055
 23.4796540847960458 19.0588947527608319 11.4140379690418552
 24.9781974592136322 19.5258665636410385 11.4181870999801660
 25.0338457964371379 20.9104980573467110 10.7117984689857231
 26.4717326070683185 21.5424218092581938 11.0492501286931279
 26.8207035356957668 23.0797739147229031 10.6030131787834279
 28.1312528629958187 23.6712928145573116 11.1826648569829121
 28.3548578091251855 25.1961392379073601 10.7538199813844120
 29.7186159356909094 25.7800243906362176 11.3070730476176422
 29.9304942442375506 27.2267050241130804 10.7825762443343152
 31.4767570906997740 27.7309823736532408 11.1389316166136503
 31.7951118760500933 29.1591389058971870 10.6597109350592003
 18.1176770927107960  8.7569819563023970 10.6427506854255096
 19.4613750911792351  9.3569596976665466 11.1530950342928463
 19.6290702187754782 10.8270670790815267 10.6472581864355309
 21.0644470898283060 11.2341503636593956 11.2871049627708864
 21.4125499879408210 12.7499846896448048 11.1943399057627353
 22.9183379192007486 13.1892457403003700 10.4674302206015266
 23.0692230909998379 14.6112931000378321 11.0732576506338596
 24.4048827808658544 15.2437913080191265 10.6021039667045400
 24.5055017457475692 16.5757881835289460 11.3998038625113001
 25.9972097257859325 17.0569775650092268 11.4271540360926647
 26.0472449344320154 18.4614230887337420 10.8002115978969719
 27.4291084630233151 19.0955950068237712 11.1680525750137196
 27.5393324456315902 20.5633142083002696 10.5661585015641961
 28.9382195360883543 21.2262593445120054 11.0708720038920294
 29.2977996279227213 22.8292952782430234 10.6966890002207347
 30.6048376101388477 23.3755843095895948 11.3141951398844771
 30.8972242785109863 24.9541408783988921 10.8464410662936004
 32.3335430293771182 25.4190042097701401 11.2988375498669598
 24.1181525430890566 12.0832052298155386 10.6043608856390605
 25.4331461698278041 12.6611671276816846 11.1641299114766124
 25.6315565230008069 14.0488946020738439 10.5676421294784095
 26.9620540012921346 14.5998980816019550 11.1634660896542233
 27.1112642241399087 16.0619788209340086 10.7360163058875511
 28.4715137502623641 16.6744955077849077 11.1899663974567556
 28.5750078984585549 18.1581034715640257 10.6672375476542562
 29.9111351280472064 18.7985218695225740 11.1549877106712998
 30.0453928261056831 20.2803584791982239 10.6225307993416891
 31.4018039718089028 20.8946620118439661 11.1950246930459123
 31.6157395618105141 22.3811876213938739 10.7482073074210653
 28.1861094472647800 13.7223066725068445 10.6556359027000749
 29.5344064088839602 14.3441292955335999 11.1538972384569295
 29.6615192269127412 15.8176599071223816 10.6561282757097882
 30.9976036675337738 16.4551509376463692 11.1597101024693934
 31.1106955460662533 17.9369879757746240 10.6559936380489386
  1.5114288550533792 22.9927995626149624  8.4966712466298109
  0.2576712544948652  4.4369617549351394  9.0941060365315654
 11.5450959041989645  5.3895376357292042  8.5661406900745600
 28.2283601728100635 13.6351842078174563  9.0819789743481358
  2.4802803180300468 34.2381827467027335  8.5781389241938388
  2.3441966802935168 29.8011134203578045  8.5697998047325203
  2.3175340598146357 31.2814059638089077  9.0706138190581136
  3.6477170715584850 31.9340793117700450  8.5828612427132871
  3.7139259803920956 33.4094787052704731  9.0818541696574080
  5.0390967298146316 34.0724504178382972  8.5748252155516731
  5.1223024593810331 35.5427151406954138  9.0866287907671754
  6.4276271886053902 36.2217966202004504  8.5650672412957398
  2.5341096352990653 25.3327421818926801  8.4554262177113682
  2.2862840696799664 26.7964835882085168  9.0260561311435428
  3.6728034082356249 27.5343240227832986  8.6886019150143152
  3.5649806499026497 28.9788987704808321  9.1716926734511670
  4.9517119823937232 29.6669067732427152  8.6669766498139413
  4.8944677009090256 31.1219961469608251  9.1153169040625990
  6.2167029409930201 31.8067670723452665  8.5428205858538551
  6.2833567483016939 33.2585645026376326  9.0716148386364459
  7.6246812308584024 33.9544654415724239  8.5808579674148913
  7.6842701723108453 35.4170761477284088  9.0225518935873215
  8.9382065174122545 36.2428785166443888  8.3493794996175392
  9.0785840603847099 37.6349834885246040  8.9859742445227955
 10.2941753477729669 38.5301379412375553  8.3866849386549376
  1.3301733880781854 18.5567828819156091  8.5596399044112612
  1.4271573069010226 20.0377314426132678  9.0540509762803687
  2.7337868828337233 20.7215221341877367  8.5449301221560674
  2.7890780766605423 22.2113467087314831  9.0620813257719917
  3.9858980001732545 23.0067564664438180  8.5998091729315735
  3.8525419303606361 24.6853151349427833  9.0409798005422122
  5.1051049662780414 25.3687676592660374  8.5601112344925738
  5.0960920005549282 26.8564721069948895  9.1348372608054529
  6.3720391488354595 27.5193373338048097  8.5551832415277058
  6.4331479882032134 28.9567161967677187  9.0411579871303349
  7.6714039235792919 29.6448291133820554  8.4236495436670857
  7.5164697498262605 31.0543481122602003  8.9896366013853388
  8.8633772229979222 31.8193428119935611  8.5662177589226225
  8.8595078817399084 33.2135719051628797  9.1788187928500378
 10.2456679263876698 34.2191584138067171  9.1685219280958563
 10.3511235752979118 35.5590934908540817  8.3897768882103314
 11.6605540216337555 36.4351065450266560  9.0193975089468452
 11.7156923132834550 37.8560898087296991  8.4086015248139176
 12.9950018847178708 38.7043188027706648  9.1129194603056636
 12.8771887445212663 40.3692779702133748  9.1139712167527520
  1.0980282242511479 14.1489022014736374  8.5800138602418237
  1.1591265940796975 15.6193289608148262  9.0842691845060006
  2.4866415831186561 16.2809357482470780  8.5637470141817413
  2.5693842664374049 17.7505022447749035  9.0665756431055780
  3.8783727758429380 18.4249505798918172  8.5383149804647811
  3.9752827019388275 19.9117121461565674  9.0425872465206876
  5.2327204016018554 20.6676931241374753  8.5235419807509007
  5.2814696770704392 22.1651267480782259  9.0189085087171499
  6.4225136474171487 23.0311562991414185  8.4701377268183613
  6.3490937448840077 24.5612716415166474  9.0138171320325000
  7.6464569637846251 25.2831672388793756  8.4616990610918581
  7.7078845725225005 26.7507841467387593  8.9840267056232044
  9.0107826569084253 27.4601585262770023  8.4307712257404628
  9.0920132754343204 28.8970314638383527  8.8914020667705440
 10.3463763182310924 29.7370794531152747  8.4390031478006549
 10.0775134875843104 31.0524760600473222  9.1279370199124816
 11.4214573510581161 31.9728785514360752  9.2821227211182276
 11.4807105148685675 33.4094024165921581  8.6995563585331777
 12.8512242084156227 34.1665791395059131  9.1792612209884261
 12.9308275136124884 35.6267872838143589  8.6232770878011333
 14.2323492050394602 36.3761638391626789  9.1418968736314632
 14.1729290923125824 37.8994384471121819  8.4529018764868447
 15.4605279141714824 38.7768466479493057  8.4542617315269748
 15.3445444686904597 40.3391321570667074  9.0606784712536133
 16.6564166726927816 41.0301651319672018  8.5898426521822309
  1.2812758162957767  9.7083459847767664  8.4534517187500828
  1.1042039648475233 11.1549457678419213  9.0509584692425857
  2.4641969099770398 11.8704284257026575  8.6027308012025951
  2.3564826303138311 13.3312012553849044  9.0736343012725733
  3.6814397995694783 14.0248804954363919  8.5165101683973301
  3.7357582936541962 15.4712912789159667  9.0562944530544858
  5.0875251061354891 16.1608377676287027  8.5787140000894571
  5.1367220205193007 17.6294333219118755  9.0189192169114776
  6.3988320264315828 18.4673582267341700  8.3825930918291629
  6.5311718922179010 19.8678192308168136  9.0104815836201340
  7.7060046568383971 20.7970068489555224  8.4699503548008828
  7.6596118567291613 22.2818425922770942  9.0019065757189374
  8.9615215069371530 23.0225804262949723  8.4778013247754398
  8.9209924315792968 24.5111272895372281  8.8930216391600876
 10.2712518206542285 25.3148815706008143  8.3861449197916258
 10.2779872562996015 26.7307949814509698  8.9552666902590996
 11.6313747357058670 27.6327733047552577  8.5989086934548542
 11.6864165124294281 29.1692158621362942  9.0431003406056902
 12.9786278723328827 29.7765909175646222  8.4485134803204591
 12.8552061380136866 31.3279804416497178  8.5471173982120341
 14.0936710224358137 31.9701966864407083  9.2529030902351810
 14.1838184499268110 33.4089682770074035  8.7225025138177248
 15.4667077628372205 34.0984208791611820  9.2902671074539409
 15.4781108935979628 35.5809353062804590  8.7083125499793113
 16.7610343039730125 36.3285075752652631  9.1868212590415244
 16.5727266422821522 37.9934030778453007  9.1885125232818243
 17.9000048466447055 38.7052339839715884  8.6601129683350173
 17.8788367782316548 40.2142476206190693  9.1273028256913111
 19.2054373511437966 40.8791699585199737  8.6245766307381668
 19.2702917058516796 42.3639877644857137  9.1065484756844484
 20.5976520377385484 43.0328606054885796  8.5994246025643957
  0.1756664390766099  2.9557187849184370  8.5934300788466302
  1.5501088377746637  5.1035288101187186  8.5672223418185141
  1.5525135265072150  6.6036571521620901  9.0133756827128515
  2.6978928944814951  7.4388909839938391  8.4467169774050799
  2.6359267484568107  9.0422641169640254  8.9087965662068207
  3.9226471190065055  9.6860317207646691  8.4466407864257995
  3.9218174329971474 11.1495796572494843  8.9640871748931232
  5.1539911207557845 11.8471668620942978  8.3940824200481270
  4.9808377170174811 13.2618446358148567  8.9701893265677022
  6.3450816456065127 14.0079472576324449  8.5957100747876467
  6.3167438287618163 15.4223989853834738  9.1981617420079260
  7.6881195269522005 16.4416849098584414  9.2132092403385553
  7.8064336284996125 17.8032402855296574  8.4595758951436419
  9.0875578654995852 18.6977759693283225  9.1334031845637025
  9.1617791497500143 20.1398362182645876  8.5748026872826824
 10.4167698581982293 20.9607399047926286  9.3228777715430713
 10.2517622079092536 22.5459739571094993  9.1863561752004799
 11.5479619361035724 23.2070111588211496  8.5886571565133689
 11.5819261274077672 24.7597762980071820  8.9674307036929193
 12.8952985165895555 25.5049898393336569  8.5229391288840262
 12.9499602484475371 26.9984906267991782  9.0781278933880287
 14.2893847354784533 27.6786736111460137  8.5900995293281266
 14.3340606253251153 29.1613510285261341  9.0930179269148343
 15.6284583324931887 29.8540760275357719  8.6375578016278123
 15.6632625454372931 31.2977999903924022  9.2359096128740870
 16.8715491735364367 31.9891729400891620  8.5833817101941907
 16.9554203355701247 33.4626626662606412  9.0824549357462736
 18.0233423752825104 34.2434602548161067  8.2234790848005233
 17.9139141196042893 35.8248198384807992  8.2821931434534779
 19.3402769428853638 36.5522713012501370  8.4563929294498124
 19.1494788997012435 37.9323220502128819  9.1529047017926359
 20.5344561687332359 38.6605479212795728  8.6883335830431037
 20.4617924530294744 40.0984286120544766  9.1616895345269853
 21.7842154548019877 40.7864090830354442  8.5854725396546101
 21.8472173018416882 42.2362820807064097  9.1152837874439303
 23.1855534580409852 42.9459339125720021  8.6380200537847216
 23.2319101468896854 44.4168265109043219  9.0905823473767082
 24.4403175906237209 45.2919104784523583  8.4507331781143762
 -0.0052215459934687  0.0007437239469907  9.0918241270235765
  1.3159488108547417  0.6603981720762049  8.5851487617273214
  1.4138500791185309  2.1379701296190308  9.0984141170150821
  2.7271412995507833  2.8180234997032172  8.6062781754616040
  2.8038668843799521  4.3003212306420240  9.1421510063404003
  4.0374361683704301  5.0756566769521827  8.6979607018802731
  3.9118645174683011  6.7103096814739356  9.0684309891022554
  5.1898645424540266  7.3718668578838811  8.5836095538678059
  5.1872455472458530  8.9130121724760834  9.0052795549081956
  6.4905128085962112  9.5880259361820777  8.4814518465704687
  6.5222447111358575 11.0796594960820940  8.9058838657540296
  7.7910399476874845 11.8563779088293693  8.4886619465619173
  7.5604351677851138 13.2152010183175666  9.1961744452354388
  8.8492582006799125 14.1513576824765419  9.3336511920501621
  8.8985965589808131 15.6221779745346172  8.7357718971196849
 10.2558013554666214 16.4040168500725301  9.1827150130883783
 10.3434602641536486 17.8980469494922900  8.6676351932853599
 11.6535103877735970 18.6184234200290248  9.1705628701732032
 11.6600114473846936 20.1864435177788017  8.7192157250014599
 12.9800863717252231 20.8330274636149220  9.1847459114159573
 12.7857912191123031 22.5250382166246261  9.1908658792511790
 14.0460615426058109 23.2271144558364639  8.5880241373284036
 14.1194023650808624 24.7366442923115883  9.0718934341842328
 15.4502027393092938 25.4129371437949949  8.5896952471593586
 15.5319690569640425 26.8934560238589242  9.1055354645442836
 16.8491639878114334 27.5670393284485833  8.6066224957981277
 16.9137824105271974 29.0520243868922314  9.1137398622568853
 18.1995257610508894 29.7159852423473687  8.5724512765506429
 18.2147564841252922 31.2230842696668915  9.0005604446854512
 19.3707180542629338 32.0521154063820219  8.4127602276142301
 19.3317463732118675 33.6657104731405354  8.8598843567480348
 20.6472718088639340 34.3462036144243044  8.4726904780502466
 20.6585971880784278 35.8261047558377825  9.0469334887098025
 21.9732880722077724 36.4822523614596079  8.5567743813825814
 22.0059731015390945 37.9234066728927743  9.0610528275068098
 23.2476189808011213 38.6082231618679401  8.4692179689670741
 23.0779531365086115 40.0250532242782597  9.0321471208003707
 24.4085024293843027 40.7951589572941131  8.6068762283685878
 24.4089372677628234 42.1961389363445534  9.2384105206227805
 25.7797816597493714 43.2223801107522689  9.2469593161298462
 25.8461712359793019 44.6266998698080712  8.5434966475926473
 27.1234449583605013 45.5371519909080789  9.2704038137592555
 26.9978099965681118 47.1641419517427423  9.1334721764654052
 28.2658632354601700 47.8388912086005575  8.5737008126544207
  3.9566174651106425  1.9909645699225609  9.0972530861164085
  5.2283860276247003  2.7528777573361527  8.6070483905981572
  5.3248694362296600  4.2181289217861453  9.2104204244914296
  6.5256439103320094  5.0302000537751432  8.7329462205119661
  6.4002094268158629  6.5990049234818198  9.1705169987855246
  7.6876564567600445  7.3422889907787683  8.5946350659858108
  7.7630857704019887  8.8255976001445067  9.0390893547993070
  9.0510799494010392  9.6473440581545127  8.4893350032346149
  9.0819506108915391 11.0979548122502827  9.0122469991147316
 10.3410850412576067 11.8793131821933748  8.4749645674566398
 10.1775527477383108 13.4721050537738414  8.5771119289446354
 11.4640668897734646 14.1335123898769961  9.1213284827762742
 11.5212341614433988 15.6268971383078554  8.6516691430776209
 12.8600739405542335 16.2972225347361004  9.1407751669468240
 12.8803332380642050 17.7958223571601195  8.6208481305755704
 14.2008770426191600 18.4822997909836708  9.0465965515400839
 14.0919119490220837 20.0631264461508643  8.4071318977275524
 15.3847512806391329 20.9526879715014509  8.3670275239697354
 15.2895290261377355 22.4498964742072502  9.0355224899695195
 16.6195602660051946 23.1399674544474188  8.5846516956783514
 16.6802713256125585 24.6111048127160110  9.1080629545188536
 18.0071975544212499 25.2769527124039897  8.6135725597922850
 18.0931359272310281 26.7565971825276812  9.1205082912202258
 19.4126506321600800 27.4380671025759248  8.6330148971564462
 19.4605481849377675 28.9222836506868113  9.1561150526793611
 20.6743100252984213 29.6969466073694370  8.6745633283831332
 20.5801390809912306 31.3374754334489438  9.0268005987190509
 21.8532037094363965 32.0343084069192585  8.5290786748610596
 21.8796039453223159 33.5464072801354192  9.0167121204697764
 23.2029500592649214 34.2338559051124989  8.5404881735803375
 23.2691068725492016 35.7052884175777407  9.0549573103597449
 24.5912625633010542 36.3800579854113764  8.5496051469733381
 24.6497506631572669 37.8400882856147263  8.9690898854804750
 25.8736283381055792 38.6674536316582689  8.4791751848157126
 25.6144198759826764 40.0135503371065084  9.1478497123363240
 26.9355882253946319 40.9412868466776558  9.2443259263975630
 26.9641911667004486 42.4228584444626549  8.6899393536571736
 28.3060906752912445 43.2003509549162530  9.1175746569468323
 28.3335392898762244 44.7751446125769732  8.6645751518668117
 29.6572148416609096 45.4323554554287270  9.1357264287798134
 29.4784356397745917 47.1354540051075404  9.1701873175409325
 30.7349190958442477 47.8390696022426027  8.5743610158373667
  7.8555131843132031  4.1988079869712021  9.0867024079191516
  9.0079195313403577  5.1290875934727511  8.5165773393885686
  8.9057858968860888  6.6006255750357221  9.0846058640052174
 10.2893804957762498  7.5406931224812750  8.6361559641960888
 10.3700671960942170  9.0916791407453736  9.0413631544901367
 11.6875357544960519  9.7941877809077056  8.5374971803556328
 11.7318523362987559 11.3242607631256007  9.0130151895319717
 13.0053276005897924 11.9059343476937638  8.3752805689123040
 12.8684472016211551 13.4587061122277021  8.4393846456173609
 14.1109207809647099 14.0451365971141708  9.1684428889798575
 14.2012446660894014 15.4989370400604969  8.6651865914182675
 15.4945544843542109 16.1798786151002716  9.2243759624327719
 15.3907036719045713 17.6990395168814807  8.4607789292116511
 16.6708958446886726 18.6332010850613230  8.4052045934229831
 16.5171780557761707 20.1349179642673093  9.0051468292385763
 17.8775213633362036 20.8297322739956243  8.6328686993912314
 17.8463491209263765 22.3130418145526868  9.1234065866954790
 19.1803971946482825 22.9759550226801892  8.6428747431304238
 19.2381884884091328 24.4593657630450423  9.1342443152842367
 20.5545219558162913 25.1512210619811540  8.6230368875444263
 20.6518165757163104 26.6265623981848165  9.1441320201690761
 21.9506693026044886 27.3963370665962849  8.6710699816112395
 21.9963732351582451 28.8694831854688587  9.1519681092520102
 23.1008923642261159 29.7230451979993511  8.4535384484768450
 23.0722011944737559 31.2307652914363381  9.0373544084690813
 24.3677214886828040 31.9681229496444779  8.4767429662859488
 24.4491056288383461 33.4371561603705700  9.0276575927154425
 25.7868707188912367 34.1941055825288842  8.5734099436626998
 25.8635788192965315 35.6336570676301960  9.1417021000929264
 27.1590232565262184 36.5221757669261464  8.7070197502103035
 27.2182336288173481 38.0913407534463389  9.0655351453993820
 28.4604616330739333 38.6833464360647667  8.3777744110169365
 28.2618217634746358 40.2635617245727460  8.4414132037564098
 29.5434730714299967 40.9126688729365569  8.9778362314137734
 29.5423010076414521 42.4265062203708041  8.5224407896706005
 30.8735735529805240 43.1057841716498586  8.9397895344243299
 30.7654728145402778 44.6866327372998242  8.3380254387878754
 32.0669520157995080 45.5600671475219841  8.3106727370410844
 31.9754143212181994 47.0509601872116434  9.0018095417546817
 33.2986232170894709 47.7398516719245549  8.5478570213394285
 33.3626053982852682 49.2048389665304455  9.0816940080776263
 11.5768595042914164  6.9043175835763995  9.1075548371700403
 12.8895977147149328  7.5967120059157844  8.5791982943361713
 12.9711020764131462  9.0852145552314454  9.0606112946024293
 14.3035329734103094  9.7415780761681088  8.5475052260543194
 14.3646118606411388 11.2329413158062632  9.0148921650957625
 15.6598614067575692 11.9155057516901639  8.5652782701613326
 15.6882771605879352 13.3535776642288049  9.1618092044699733
 16.8962320408117712 14.0615662366680780  8.5432866857379253
 16.9636098104149475 15.4921004412508694  9.1086415864428982
 17.9989194426907630 16.4089569719741135  8.4676512330874303
 17.8087441169476079 17.8463982940760459  9.0876899053113576
 19.2055110937606450 18.5928949201792939  8.7581492041005244
 19.0988432679830993 20.0277096911483241  9.2486743399606084
 20.5054897650341346 20.7286437069030107  8.7758093138218243
 20.4276200890233675 22.1879647081970788  9.1959632839793901
 21.7533187091508289 22.9117740345037113  8.6319581200304114
 21.8057341558616855 24.3632336375211125  9.1038576954971511
 23.1016455723540624 25.2428498631787193  8.4858863700381821
 23.2280848831180400 26.6066209871022821  9.2066639908196137
 24.5796412012796850 27.6046453640439182  9.1985924744243572
 24.4435953048887562 28.8532478408942268  8.2888058090867709
 25.7569450133431026 29.7439434976325998  8.2336952068191955
 25.6059663096954893 31.1673359649997899  8.8714135836720001
 26.9787815404723972 32.0155836019098459  8.4300459308637379
 27.0055074562028139 33.4191571876531484  9.0580859939161673
 28.3532276681581159 34.3311427482462648  8.6837520193404618
 28.4541724115020607 35.8760906336804837  9.1902557029112959
 29.7592558724137071 36.5243750300544789  8.5811895329799714
 29.8403118639769325 38.0425290112512755  8.9579297142327032
 31.1028328861240624 38.6022222019036718  8.3127553301806660
 30.9296356030904107 40.1754181929664682  8.3161847373567674
 32.1876903549687583 40.8013040040312873  9.0008168241131052
 32.0801725042363728 42.3436119571820981  8.3237910707967835
 33.3747195819720801 43.2312170268589853  8.3196394117790327
 33.2007828322460483 44.7297661331578951  8.9376141036967081
 14.1346178283834085  6.8107091197609133  9.0937458131046274
 15.4620283115707462  7.4682447572636335  8.5864118513149723
 15.5437321181125760  8.9515604490277685  9.0801293577427753
 16.8581339901725222  9.6135228511321227  8.5709003323644168
 16.9377236164885261 11.1034077275948881  9.0527088050875921
 18.2218137934061346 11.7792748576173185  8.5109132342807499
 18.2288054378955344 13.2860638587719340  8.9573164957247293
 19.3667429369994117 14.1680590292930866  8.4097243177135486
 19.3328876451601985 15.7587125286376484  8.9472259109244234
 20.6355423494178574 16.4716897904786137  8.5744652899683427
 20.6350954625843670 17.9178582137641236  9.2134565617901902
 21.9549388331917719 18.6112511397338345  8.7265086811389896
 22.0121293003292386 20.0340825835787726  9.2078560132218339
 23.2337719700811789 20.8499955979599783  8.6026315079126530
 23.0080776572515475 22.2122161507093949  9.1831549465080506
 24.3966312911739571 23.1496080855453386  9.1587316181821326
 24.5046608040013112 24.5687505958221521  8.4883738241309690
 25.7974867314631240 25.3876443337186330  9.1687989925248559
 25.8656076034604681 26.8620716118539491  8.7251466834781386
 27.1564527567199434 27.5964493080481184  9.3028344508347196
 26.9644837240299466 29.2062897355567301  9.0918215340266766
 28.2801660996680901 29.8696919260376568  8.5894031380476843
 28.2732891502051942 31.4177011850156660  9.0058141578272632
 29.5786884096098390 32.1549517997123857  8.5607652064641577
 29.6429725099275103 33.6448858124886669  9.1292282359409693
 30.9612726422483249 34.3180993536904921  8.5872350837813141
 31.0603395635952317 35.7974667801095805  9.0700310553806816
 32.3884115950398126 36.4390306065131355  8.5278657382648504
 32.4524107075592880 37.9316537960411253  8.9689025985040640
 33.6919361700466169 40.0629718761219777  9.0355664237130711
 18.0952270246256823  8.8032703276687219  9.0948824764180287
 19.3983413275585583  9.4869283338890522  8.5845357318723838
 19.4806020103237572 10.9879693948660844  9.0740214451073893
 20.6893724997573649 11.8220518766729921  8.6057536446129355
 20.5851111005207841 13.4472370366153307  8.9767800063159839
 21.8479099004815467 14.1935723856803850  8.4780872923182109
 21.8798986905630350 15.6678315800887411  9.0686894452818159
 23.2059857149869551 16.4453036405633028  8.6464559815790789
 23.2698693394445648 17.8683535493827321  9.2565102626685327
 24.5629640655184005 18.7630621818500067  8.8003574763896317
 24.6258363024778077 20.3268990667061580  9.1552990243480430
 25.8823602638086996 20.8954322644492620  8.4383522222188567
 25.7641368805044664 22.4629530435114724  8.4529621786422489
 27.0274595864104654 23.1274488872453858  9.0542058733757909
 27.0939684559725222 24.6306439641181569  8.6506977378851975
 28.4012465070748910 25.2931634188392351  9.1999298876824973
 28.3925901878872686 26.8253239449955529  8.7362661666234338
 29.6853764250647458 27.4663660662871791  9.2613755019299671
 29.4839429344095727 29.1657430134036204  9.2379855499123948
 30.7502774951792368 29.8504081991820236  8.6310675005202526
 30.8043086740934839 31.3683757182263996  9.0963301429585250
 32.1254841019159230 32.0404951368521935  8.5805718459321429
 32.2121999362008111 33.5231196565208904  9.0791399658738285
 21.9882499051602132 11.0047135220680623  9.0482315650969678
 23.1483475912741348 11.8898944495751326  8.4522120468297608
 23.0512723621580058 13.3947020451914174  8.9242270876030005
 24.4026074082408471 14.2561978484588128  8.4661758153978095
 24.4270346325266239 15.6642489128923081  9.1069226730437762
 25.7760103921551504 16.5906222508689076  8.7338599083328674
 25.8756759971398012 18.1284274227216038  9.2578920245078482
 27.1919189177913445 18.7782920251945278  8.6459064231657656
 27.2732237981314078 20.2931039907509039  9.0264745574258338
 28.5477299882578457 20.8663618230165291  8.3824366277539610
 28.4374292820892123 22.4308668140614742  8.4209906242726174
 29.6548559596834380 23.0091443226103216  9.1946815411342779
 29.7405571677211107 24.4815652366059275  8.7207221617469823
 31.0164818809217095 25.1488689372972480  9.2987084081928675
 30.8588013312011640 26.7100949266665388  8.5571193466166449
 32.1421712131137127 27.5895786368584801  8.4524573319795930
 31.9991113493006907 29.0751756880782715  9.0883198149176199
 25.7029809554404451 13.6747150212346433  9.0172812628250352
 27.0005472114472624 14.4264396767591929  8.5711988305406361
 27.0707625371005349 15.9071379813385843  9.1613368100169907
 28.3914343342776192 16.5841691881479711  8.6234030589296751
 28.4937426412585708 18.0573273480911531  9.1240365114488675
 29.8258905121531939 18.7062741659162057  8.5886318412190121
 29.8955775686445264 20.1938267883762599  9.0497959955020484
 31.1926722683378230 20.8720838537541482  8.6053436825883374
 31.2199973577390111 22.3105299841273705  9.2028476011036826
 32.4265978633281478 23.0081327253119632  8.5882849492714062
 32.4853426807493619 24.4433808845705016  9.1459481105847065
 29.5514758666464843 14.3089278700500593  8.5837152206445850
 29.6413741898023524 15.7834344972740190  9.1031990750719363
 30.9705318416947328 16.4394589453025013  8.5923169824654995
 31.0698692364520461 17.9135898688618198  9.1032001955108459
  1.8218023449411527 29.8773903188950278 12.4586920572770055
  5.3961872921819012  2.2554460096651390 12.4974917489210302
  2.4508306949071206 34.2322588226045426 12.5231401455022855
  3.4875543246868097 31.9965268133634382 12.5232078315275022
  5.0023420176418822 34.0162961135324764 12.5231680108941781
  6.4714106708459118 36.0731252144872911 12.5087006898140505
  2.5461858722720003 27.6984229536845490 12.6259796090353866
  4.2088844857004641 29.8073957067458295 12.6847713645724394
  6.1219729634483881 31.6360538105338449 12.5126131913181418
  7.5139953957473420 33.8102918201759550 12.5482692309366968
  9.0797881807757612 35.7621681079110729 12.4186434866105024
 10.6088949446141818 37.6590217914104528 12.3848018169452736
 12.1271965829905763 39.6381427932326318 12.5964108048833427
  1.7813216377040602 23.0036620443454716 12.4824147725559715
  4.1390428181524275 26.2398108364961118 12.6295626321984287
  5.8029326778200945 28.2964049409418763 12.6407602641663548
  8.5077202853619553 31.2498731227737565 12.5236286336528000
 10.0907735862221202 33.2116361553264667 12.6647318310739401
 11.5482053869553791 35.2492266977673481 12.5323804148060383
 13.0479725044259620 37.2130923058344933 12.5211785070853896
 14.8208212999229989 39.0986539422293120 12.4799787295100089
 16.4991304478156060 41.1455796116043615 12.5364068117541443
  1.3751939591728495 18.5766505101284700 12.5012574073055145
  2.7984116973574102 20.6002729731584573 12.4897596026023923
  4.3977716522851917 22.2757247398782319 12.5715367261091373
  5.0510653916550519 24.3204067129904793 12.5765619176155781
  6.6159186767413320 26.0865106347328890 12.4542429680393756
  8.0150721429265470 28.3629126491769092 12.3851719013097643
 10.9338515928817586 30.5567138727207492 12.6529720261981122
 12.6353000179532753 32.8115295999241141 12.6692658844398114
 14.0892617670584830 34.9054836171132266 12.6334554738045544
 15.6689043062862083 36.8363984849382149 12.6196755035313473
 17.4420205695481663 38.9054537619940604 12.5723097578367611
 19.0594990150387460 40.9886053127614574 12.5644899813956048
 20.5455157819369596 43.0042451069951639 12.5449879350533084
  0.9562209926424111 14.2522139790278839 12.5217899314322825
  2.4485603782621310 16.2630345244033094 12.5088694039605155
  3.9251430806046259 18.3438027534721826 12.4821791776444631
  5.4884952134982852 20.2999991774144632 12.4445223826629725
  7.5992890547343803 23.8355884901514408 12.3786548546179649
  9.0585858864064832 25.7041716936931657 12.3716995126880516
 10.1103941430668787 27.7061934658917792 12.4952288810864047
 12.2056600637651922 28.2715966358349817 12.6258058625272813
 13.4127493215524449 30.3170199772062503 12.5181066191495880
 15.1054981819554843 32.4511385901322384 12.7176607140817293
 16.8718553038906762 34.5170131831542193 12.6151174296343473
 18.1477605854158881 36.6777240093317687 12.6158673370797203
 19.7897669113414949 38.7779925594627741 12.6961151609064711
 21.6870451636728205 40.6056567583475854 12.5516819531053674
 23.0646459938540680 42.7642953121408027 12.6045893102386941
 24.7033923216850226 44.6230442010585691 12.5147192730321049
 26.1553785518976163 46.6326053920861767 12.6554878588903303
  1.6237813140352539 12.0716743717883279 12.6284133991666767
  3.5184747835102290 13.8469021377256354 12.4794655337872946
  4.9058847745880145 16.0170594177224359 12.5406009165181480
  6.4200777465004855 17.8957731892626590 12.4399560794357278
  7.9952475351287475 19.4610675978552869 12.6122284104840254
  7.6490762591736621 21.6108076586331599 12.7123724689633963
  9.8856225562552797 22.0480019464366812 12.8473346215813944
 11.3398249326297496 23.8787782017247423 12.5181374958069860
 12.7971276285440840 25.7365871098278909 12.4857638480309028
 14.4273118136201095 27.7655778708503220 12.5324735686846260
 15.8566002594110955 29.8623173031074600 12.5989989446287201
 17.5751940112041467 32.0777854238546496 12.5135904559046249
 19.6218112694499460 35.0645310927535050 12.4902755625064543
 21.2956722581328570 37.1873435235787397 12.6157483923558402
 24.0854406198724682 40.2006672620667231 12.5684096554020588
 25.7283914063402968 42.0905468224278820 12.7003223141451596
 27.2796937683554610 44.0264396040455139 12.6368750710314988
 28.8820501390790838 46.0266605018290988 12.6451936507862879
 30.6831623276641423 47.9642467012566129 12.5439392499269733
  0.8885178835641540  7.3710280268709942 12.5456342827054677
  3.1563580544672130 10.5335009307137462 12.5066557097281219
  5.8547487420087378 13.4915322082491276 12.5239372555538520
  7.5011987438947729 15.4584383051481993 12.6957879461128051
  9.0677867200197451 17.3450796716043030 12.5844969501985400
 10.5386238738255340 19.3677758967710609 12.6393007318001533
 12.2422844760605258 21.4480699344533257 12.6788577373578129
 13.9870141670289847 23.4122779675510166 12.5537840104140308
 15.4104306306572330 25.4654462828729464 12.5352170072986020
 16.8966188865608551 27.5682322628550516 12.5521841419427975
 18.4090858415873342 29.7795723469193376 12.5368805040810489
 20.2718618464289975 32.9654636929238265 12.3689113708687568
 22.0104721811854844 34.9844115771957291 12.4552499044806471
 23.5213053037280240 37.3391224348214479 12.4406007706296506
 26.5963051817401492 39.5646305746736502 12.6427026395342121
 28.3833840802505080 41.7019255971330978 12.5384024804127794
 29.9099469108062550 43.7383173622050023 12.4691017428715796
 31.5799066338085588 45.6306824832390703 12.3822964858899294
 33.1588658389639335 47.7429096813596558 12.4916380614718090
  0.2419241009312292  2.9377967793461135 12.5417361039885531
  1.7386207296056433  5.1056780591479365 12.5370583712080919
  3.6329946885570550  8.3888368853093187 12.4064269680048760
  5.4165448746962142 10.6188143318197934 12.3852082363333356
  8.1726415830281596 13.1393900222376718 12.8575471099469443
 10.1946062895576190 15.0369402760489823 12.6425330637789486
 11.6392072778487741 17.1110811514296017 12.5758899022121433
 13.2076678909728731 19.1690196662958314 12.5420894282635924
 14.8885218446573013 21.0615822626267253 12.4333747482829207
 16.4555085529750187 23.1642232828652155 12.5277093335471736
 17.9477744547097373 25.2699598330643482 12.5550193792781748
 19.3840304234388690 27.2964118608805819 12.5740334864643444
 20.9349854402906743 29.0277087386184434 12.6909178633540840
 21.5285945252279696 31.1301996330981581 12.5947409865246307
 23.0804825329915175 32.8202401975817111 12.4390164525625480
 24.4345033545687684 34.7866194586958883 12.4861068535303907
 25.6785498926323363 36.8251007763555691 12.6037942789337905
 27.8269044343468721 37.3209480828796742 12.6690319896511525
 29.1041334945354677 39.3435780285343597 12.3590919918852045
 30.8142648265728134 41.4395350159896481 12.3882226814277310
 32.4364177819064778 43.3540413079402711 12.3161319010034198
  1.3273367753260528  0.6109476933834689 12.5300965429122932
  2.7404350615179580  2.6349309867250947 12.5465422620696252
  4.2667997068943482  4.3652556042449584 12.7179045789906588
  4.7887650437430587  6.5013401045378343 12.6717224108019568
  6.3014867525103924  8.3142622343532668 12.4811283767773133
  7.7671225261299002 10.2920997029430588 12.3953387151068757
  9.6824176280902261 11.4342240593395861 12.7193210210064649
 11.3678439235492412 12.8150499786789336 12.6072462573936956
 12.6889932215638730 14.7987116651231556 12.5558889173935615
 14.1524216218094541 16.9223545640262500 12.5647388340125161
 15.8057263718213239 18.7859437278975321 12.4125779493585107
 17.3433506048991966 20.8981771767878008 12.5241259915156871
 18.9764372438007207 23.0427518310887258 12.5822846504368027
 20.5313961949882007 25.0078793252814400 12.5708638833983244
 22.0002661903729368 26.9330008345701017 12.5868183861659624
 23.5802535881091764 28.6422232915125967 12.6210832811092732
 24.2179357728451343 30.7274613765475380 12.4927708980599235
 25.7270117873216364 32.3199565187547151 12.3856919635628557
 26.7387331468267924 34.2988692076156809 12.6535499319312681
 28.8634643562666362 34.8842333544660903 12.6995466918197408
 30.1241509892377231 36.9349443406422751 12.4716042121482005
 31.5187888010654191 39.0288030920104347 12.3383800865903410
 33.3623006805483442 41.0635820807552463 12.5104666477117341
  6.9103402217101824  3.9883737587020738 12.6792346926660056
  7.4020869362894999  6.0947516948606282 12.6724091986111844
  8.6153439416997433  7.8426705746223329 12.6117239568723409
 10.7127731834403193  8.3090906555153126 12.6026445645973553
 11.8907877989727258 10.2324968708900137 12.4549223361532313
 13.5104859675624223 12.2517111255672546 12.4261149538527480
 15.1174780646321789 14.4717775445782380 12.6405375089893202
 16.8552646308583149 16.4854270012916224 12.6320223166710051
 18.1772054371961111 18.7045375892455787 12.7004408814154424
 19.7203585211825470 20.8686963585033958 12.7486471492937437
 21.5943371789226504 22.6875774106407917 12.6187583083846011
 23.1544012287799355 24.5727249958594847 12.5162866476122989
 24.6886250174644459 26.4262735530680857 12.6391277574585867
 26.0933283465794652 28.6173948972724297 12.6255101456372856
 27.8672955097996571 30.4395497578096332 12.5210148976395477
 29.4552236291248946 32.3164057610965330 12.5290927533824537
 31.1258706040462947 34.4316037975082097 12.5266993491932208
 32.5176276125981403 36.5726644056805981 12.4719661493922391
 11.3791109390166021  5.7010793690993165 12.5490976609499931
 12.9701306408951176  7.7647123452700910 12.5230752285939086
 14.3631623192273121  9.8638117650043924 12.4906816640423060
 15.8839436672515664 11.8872600217411595 12.5293900493816306
 17.5684073851307687 14.0178774592890836 12.5054028874745899
 19.5776355649696967 17.0057327307345574 12.6151955193036489
 21.1012735507801530 19.1885372742757951 12.7500101834494313
 24.0454936419863934 21.9590935552417257 12.6578187389480039
 25.6763384499026870 23.9608657926703010 12.5559925802775947
 27.1512593944397054 26.0134186823306983 12.6534707422936297
 28.7720697020924341 28.1167215063163738 12.7256344706353737
 30.6446944968776407 30.0655285436239978 12.5922655188566353
 32.1129211141380111 32.1211618985998868 12.5262002024311325
 15.4390027237333118  7.5349073351125009 12.5283284378423758
 16.8989504854769628  9.6228038587856783 12.5163030469433796
 18.4479838855556864 11.7689688210225452 12.4789150701395695
 20.2896732118524739 14.8985616450881508 12.4120722117963354
 21.9244050981827243 16.8781252517848337 12.5802256797738092
 23.2394128757295562 18.9717728947064863 12.7570250026442391
 25.3121966306066284 19.6169175287028921 12.7428159151812324
 26.5095937358124445 21.6135670645760065 12.4285427945724862
 28.1239879318672514 23.6344717027480620 12.5609545358501826
 29.6905234693098556 25.7960592774074335 12.6851520622983536
 31.4615337561641297 27.7168341217933225 12.5220847877005248
 19.3840339133837425  9.3255407807619424 12.5271491593705750
 20.9457993511645704 10.9728834769665635 12.6255317845759052
 21.5370705121977792 13.0522873788742366 12.5123669057742646
 23.1488890197188368 14.5374572337353278 12.4390768869649193
 24.2220453837147076 16.4729744847143742 12.7268528640594223
 26.3170548365769470 17.1220849703887588 12.7533530071680588
 27.5646579690643456 19.1632501341303687 12.5339721482359074
 28.9112193328953779 21.2300757747779691 12.4496210183711806
 30.6129757676661498 23.3857871610216499 12.6876330008549161
 32.4898543757948843 25.4458509613010726 12.6672169345997450
 25.3964732854219761 12.6724564096831003 12.5386272060963400
 26.9257786505607015 14.5480926470485379 12.5433627544542876
 28.5665065249711141 16.6571147345621462 12.5628721398535621
 29.9457171849493307 18.8038922848215933 12.5319495491783872
 31.3787909857273277 20.8450319014740586 12.5725968360142399
 29.5453932364641680 14.3342910658688947 12.5325486980195517
 31.0148521675164979 16.4453297070648823 12.5371729043825955
  1.5520999096377066 22.9952708100298366  7.1191000694221858
 11.5232331533042291  5.4038943673760604  7.1885475485388515
  2.4832458878532364 34.2578072801438438  7.2006761039843497
  2.4812496074216055 29.8656634471270728  7.2038799847723762
  3.6733444116537819 31.9579089021869720  7.2058993497095827
  5.0328506450449559 34.0777558270217682  7.1961384498475045
  6.3420288891686756 36.2272527450486450  7.1913288453304700
  2.4977383521518175 25.3711126460882568  7.0800365643522776
  3.7521111516666656 27.5200026505918380  7.3093091430811370
  4.9379890948880254 29.6433406935954089  7.2882276721935222
  6.1634795972127279 31.8194245276367269  7.1652485118891223
  7.6619039821792470 33.9107569441070780  7.2008124483131342
  8.6458574636498753 36.3544731202742426  7.0199630616266449
  9.9867122992509163 38.6636840174978360  7.0586293416082091
  1.3220859666975657 18.5328486183946239  7.1828425072722393
  2.7159892174769182 20.7239262306351435  7.1669944030124011
  3.9983702734247251 23.0530921566696705  7.2215681039586253
  5.0794143372958738 25.4123044203296615  7.1818589101777066
  6.3386248881735057 27.5364300860690712  7.1768935994804108
  7.6844526740361490 29.6449013662677636  7.0502116635192884
  8.9144250498604016 31.8405694420047674  7.1922361725730637
 10.6464169100154535 35.4417481246081181  7.0661429466325707
 11.9452339302856636 37.7456230760344766  7.0654526178688579
  1.1020172054529094 14.2231692584181673  7.2053917035077282
  2.4759736065425830 16.2843985955517816  7.1856776516228003
  3.8026579699112202 18.4059572051430713  7.1638248548700503
  5.1371844667427329 20.6853861029573238  7.1510363792572118
  6.4038274345532225 23.1101873193088423  7.0987234282355267
  7.6044223201005368 25.2996139667890105  7.0843771277504972
  9.0059780913806478 27.4281694269217304  7.0526922408348902
 10.4642393410033385 29.8432002041020574  7.0706235149054333
 11.4129663705766315 33.3654892416807201  7.3314387417047646
 13.0066589126864880 35.5071135735962002  7.2567334751469197
 14.0690116825976990 37.6160800455183377  7.1261348391736830
 15.7339382823835106 38.9743055772794236  7.1352108260711971
 16.7041521975601341 41.0839728162337963  7.2147772407484583
  1.1307246618086213  9.7517174659002333  7.0848963820128494
  2.4773652900806225 11.8466988656031162  7.2197583264961276
  3.6334686707554558 14.0472865994414740  7.1388627426225248
  5.1489177830224397 16.1028750360241908  7.2009775011800148
  6.1224757421188567 18.5518853653066103  7.0469369744664396
  7.4576442921869521 20.8677800196706507  7.1167679539552289
  8.9941706074877477 22.8565605607846969  7.1123374240623844
 10.2596125009268455 25.2700611706185434  7.0122095291004536
 11.6108368591975282 27.6295782909594543  7.2157555547364769
 13.0608903741683022 29.5074357221244057  7.1094526375452753
 12.8019573779006404 31.6632935523859160  7.2312091741953353
 14.2683925311459348 33.3852957589491410  7.3526532745398558
 15.4672473083923219 35.4333936331225416  7.3425195831039236
 17.9736976144752987 38.7084316372451838  7.2829299610285201
 19.2150078642405155 40.8781581405471712  7.2471672718240594
 20.5958413304846886 43.0186265920334137  7.2215423439056634
  0.1747646162679866  2.9518899757912216  7.2147066313451766
  1.5681413265991784  5.0517332142870979  7.1896018767661207
  2.6935093752500419  7.4458343864621028  7.0731359257270574
  3.9548201529490674  9.6916738972929402  7.0685984276164024
  5.2012958378743193 11.8545559307546213  7.0202002339422052
  6.4372822480219218 14.0250694733642618  7.2242671380192229
  8.1410154047042340 17.7162192881961964  7.1431114870177721
  9.4899249109377770 20.0774050790132819  7.2450779203751940
 11.5234181482064120 23.1213539211624379  7.2168287771269135
 12.9494004332665664 25.5339067149408443  7.1455743513536314
 14.3598387843892024 27.6331030646433824  7.2160755337934761
 15.6280384141555206 29.8960860893620932  7.2583964644249637
 16.7955349570997363 31.9506944063245513  7.2139215713193714
 17.9541846272555148 33.9888701063087950  6.8803085702345976
 17.5500022138437899 36.2302204851273970  7.0185336584863869
 19.6778715442403360 36.6987446609593846  7.1306049706206247
 20.5621682690497671 38.7300708009942980  7.3117335344436194
 21.7455567710345292 40.8195006389408235  7.2084552195488376
 23.2402472529384809 42.9061716200722572  7.2589265251466930
 24.1616909506001960 45.3605095307773354  7.1123067158883302
  1.3024088443443462  0.6623382871467833  7.2075670157182055
  2.6995071155696051  2.8319563478246521  7.2291703375237146
  4.0703579238265197  5.0727366286062434  7.3192239390481024
  5.1959396486578466  7.3286748890137314  7.2054837578496036
  6.4993614973035756  9.5368908235408174  7.1044052191256455
  7.9172138887817169 11.9624692709974614  7.1227394613801636
  8.8040357983869342 15.5930200723689776  7.3689416400469554
 10.4290144817309933 17.8884249910944106  7.2988325454229273
 11.6748178255072581 20.2763896595258863  7.3521535113859020
 13.9804299572201689 23.2061895293821117  7.2087472602343388
 15.4726826770216164 25.4140522809404388  7.2116360549960605
 16.8628613404112464 27.5599300850361644  7.2289924449747600
 18.1912117831008651 29.6418599171577597  7.1972575059216455
 19.3594939716114958 32.0257281638456277  7.0420670698238705
 20.6961899126348392 34.4017225126385853  7.0953183044401369
 22.0535715593005719 36.5079596092459653  7.1819589645408044
 23.3004917426647253 38.6173704381976748  7.0973070462821024
 24.4616084069416821 40.8230197296861306  7.2324383984599985
 26.1606538594932836 44.5373023924358193  7.2254692502368831
 28.2520194137632714 47.8031026261513432  7.1992035637586183
  5.1130755629788140  2.8392027444376344  7.2401646777928974
  6.5066526199616437  5.0990004494653309  7.3530620195647405
  7.6666895827962760  7.2904077153996560  7.2166820717799602
  8.9936932058410299  9.5817484638156820  7.1181815019611365
 10.4039289790917415 11.6265323478815112  7.1219861483228080
 10.0498488446065632 13.7828821150154308  7.2475769091858977
 11.4659240782295768 15.7082005982846535  7.2825991234687022
 12.8114963145566989 17.7341532132279731  7.2517387624780021
 13.8551993916877176 19.8455646167719841  7.0842926537859912
 15.6304320616224146 21.1515824342908836  7.0382923639695649
 16.6758184548862118 23.2084061675348217  7.2111367126535848
 18.0150452951606290 25.2845385726521243  7.2366043702877567
 19.4110546874849383 27.4310745058737346  7.2556790283658632
 20.6040279116713663 29.6676443451373082  7.2978987885829261
 21.8109767751395438 32.0877475642890246  7.1533544289096058
 23.2193769983428950 34.2518565879015853  7.1619578746909243
 24.6272876921954627 36.3422277560831901  7.1731053938197773
 25.9577094848320655 38.7351847947893049  7.1058182605860889
 26.8381000974367971 42.4146165508257553  7.3257644600675542
 28.3248840483003193 44.8834188319366163  7.2987558512638291
 30.6717758904992976 47.8426595994995623  7.1944644410227943
  9.0008576575717765  5.0658417676565168  7.1414493998243520
 10.2450351334527880  7.5150631897923796  7.2578779110012857
 11.7162938919192143  9.6930000351725116  7.1655431785115358
 13.0698604252202717 11.6155025849705531  7.0417344253234715
 12.7532064293681788 13.7829078744269875  7.1221001174462240
 14.2504394202188926 15.4366230382391034  7.2972443695394480
 15.1825037451362821 17.4488798964273641  7.1340480650266080
 16.9020696153335557 18.8288742984320905  7.0688068533836823
 18.0213464856428942 20.8718038448585403  7.2662315385256262
 19.2188351989343928 22.9756094150212995  7.2658663510212591
 20.4853225157646399 25.1491608141967724  7.2480986509052556
 21.9151523826494916 27.4474864146265354  7.2933321418200352
 22.8084842194684789 29.9353711777250275  7.1256230365315076
 24.3100111249871773 31.9903366994561615  7.0985470541002993
 25.8065313177778499 34.2092842090479436  7.1957545873026083
 27.1143611809798166 36.4866153244714084  7.3252625309274855
 28.5187871119028777 38.3992380666490547  7.0373961812440244
 28.0518958982107662 40.5507852375704871  7.1226406984095165
 29.4047429882148137 42.4726114253399913  7.1576071893417934
 30.5092278210427494 44.5277051888508524  7.0109769257324146
 32.3161148777367941 45.7709139433898926  6.9844732509472323
 33.3437896150143160 47.8252060314358047  7.1749511520822677
 12.8915564409427130  7.5655688236614766  7.2014459142754381
 14.3535972854492169  9.6733080141426129  7.1733591038813440
 15.6797849149552118 11.9737155479562229  7.1861635535732864
 16.8467812552256255 14.1078281715695280  7.1694326241658750
 17.9019838798437867 16.4733155330506875  7.0951364123127565
 19.2811759394340072 18.5794727762517020  7.3787435417453890
 20.5290815040498380 20.6704953369065585  7.3994521319857016
 21.7428460305111457 22.8623757718303331  7.2554432633527357
 22.7912585531727601 25.3676769491903187  7.1663179926399785
 24.2822415636419819 28.3324812977648257  7.0254779574604775
 26.0103554613355676 29.8180450198004756  6.8905122163431995
 26.9984320600595851 32.0400890064196275  7.0589860731709182
 28.3334139777809675 34.3573654207079073  7.3044654587760141
 29.7250577289277587 36.3862105360989077  7.2137107340466491
 31.1736817362384606 38.2710242359981052  6.9891861136326243
 30.7093489228525129 40.3957020712013133  6.9878222498724565
 31.8630071713436571 42.2089034315161769  6.9808044512024834
 33.6530185708049459 43.4371148882347455  6.9950100423747559
 15.4770251479714673  7.4564964907232172  7.2093095183115654
 16.8564894140866244  9.5921862246306535  7.1928575397789967
 18.2278395970664313 11.7189187382704247  7.1332526432455570
 19.3480881506154390 14.2278067733537004  7.0375162143830652
 20.6868155907870879 16.5532793203632735  7.1994324333214559
 21.9859028062631765 18.6246082272676325  7.3496088562403719
 23.2683531237324424 20.8582482291925935  7.2273614228943694
 24.8013582600530036 24.6146721515719129  7.1612903904605609
 25.9984381911207301 26.9158660865939474  7.3591940635060631
 28.3483842571430635 29.8264031425442120  7.2197059096920349
 29.6211247702643767 32.1939682725203653  7.1840558470830151
 30.9547584296244267 34.2859570636452062  7.2101270825815140
 32.4202580388017481 36.3407434952519637  7.1555481575061481
 19.3257800014931007  9.4456483999797367  7.2104817424736218
 20.7020979860808829 11.8548711289760487  7.2231189577084862
 21.8287814541551555 14.2473279693893069  7.1009598080687146
 23.2311083522223853 16.4911475957019746  7.2687294862544656
 24.4936708805919885 18.7130071906663069  7.4216958985908841
 25.9030176499641200 20.5561303144874330  7.1118739691579487
 25.7438842466175011 22.7100613972038978  7.1082896482885554
 27.1571142341565981 24.7499626712347194  7.2836057914251695
 28.3693089938923038 26.9048154675067188  7.3661459386806483
 30.7095598039354307 29.8204577651979754  7.2520761012962449
 32.1147261098044368 32.0404526350259005  7.2026193048376816
 23.1791458981080183 11.7507902305200655  7.0823468156226399
 24.3915998650784296 14.2671094880478435  7.0926374583388023
 25.7510905198749143 16.6307963006390302  7.3555309508509827
 27.1655482559360877 18.6381504122918074  7.2791610338503476
 28.5885962208346918 20.5559599238828135  7.0530782779337180
 28.3890698140809405 22.7432578133397989  7.0970881161047856
 29.8109883488714544 24.4391745713662516  7.3526731896918873
 30.5926579660145528 26.4911605378073673  7.2426136058609476
 32.3339719793883376 27.7863997523837725  7.1120331518676378
 27.0282979870969058 14.4817469097444391  7.1938878424522406
 28.3873755779405421 16.5628539270415693  7.2461855599759533
 29.8609985151399080 18.6340845986636374  7.2146413122024518
 31.2090904539986163 20.9259725869394231  7.2252323477542975
 32.3830251782993130 23.0385073203168602  7.2142136834508017
 29.5505510402333229 14.3236459109422984  7.2050637519744969
 30.9747117357156547 16.4356905566494298  7.2147089285374379
