C  F 
 1.0000000000000000
    16.7303050114543090    6.6871703952818331    0.0004927080484986
     2.5738930995200580   17.8324543915332860    0.0006990525783065
     0.0003287943511416    0.0008132275304439   19.7846751114099106
 C   F  
 196  98
Cartesian
  2.2307782958899192 16.3806393711580007 11.1925169610590629
  1.4272368394733010  0.4369278376580329 11.1919145441043408
  2.8338844830357557 13.8251760237072538 10.5687340922734769
  3.3552516708102713 15.3443172705771254 10.5850783469924341
  4.6317047161579747 15.7232082069720285 11.3468580156772472
  5.0569679956199822 17.2123961632170364 10.7660892437461388
  6.4613069688171434 17.4599822100489561 11.3203826949586279
  6.8412922262989362 18.8121460596839505 10.7630938049350426
  8.2773715669944998 19.2173579117687083 11.2233648921043514
  1.4593082775497570  9.6562145030515065 11.1878711169095588
  1.8342840448429762 11.0865727868982642 10.6419520701646348
  3.4373356300452236 11.3529890053566369 10.6837950946640987
  3.7965074819597660 12.8197767910624520 11.1582616521022988
  5.2445469553976727 13.2109711700172436 10.6308653425990975
  5.6733526654506798 14.4911312920259405 11.4414380516248109
  7.1864798993211130 14.9396991088289344 11.3194871494743907
  7.5034187712801277 16.3708825872675341 10.7299381417093329
  8.9794643632210285 16.7462917311996264 11.1159414362082263
  9.2979406669217770 18.1967827411814262 10.6162344267984423
 10.7473463522395516 18.5694641517518697 11.0592640098660091
 11.2873436561834204 19.9378224274680846 10.5478519280834337
 12.6912647020751663 20.2866553109285555 11.0556419551110530
 13.0589970137225180 21.8092909232339949 10.6702694544260250
 14.4848193216296082 21.9740490136435582 11.3198541547651601
  2.1165426793832642  7.1700754430207283 11.2634576976056007
  2.5348982885938502  8.6394491964211078 10.7972429645577499
  3.9136505705376066  8.8444486377651632 11.5391829375493913
  4.2379788766653785 10.4177683387810358 11.6320344383129690
  5.8026741530069099 10.7502118582789095 11.6836607084286310
  6.2714933181637962 11.9617928497974386 10.7960995905963415
  7.7172030981567348 12.4171048124837142 11.2637342543943415
  8.0421108696401014 13.7873075956347773 10.6698995202836944
  9.5445972638192167 14.2301432821972131 11.0553724512371137
  9.8246356333595095 15.6319118121329836 10.4100420802103013
 11.4053047992311356 15.9265962595020820 10.2388298069849775
 11.8202089986924950 17.3733059131994452 10.9102119389671728
 13.2300741783411819 17.8270644414435324 10.2389265779268506
 13.7652061711976224 19.3432947684547329 10.4102366473512191
 15.1528801660960539 19.5179966176674249 11.1161341075805584
 15.5657851334877559 20.9840205531607396 10.7302264495484483
 17.0300351538182788 21.3419256776124868 11.3206803572525274
 17.5177833038147135 22.6819495119710623 10.7664732694172987
  0.7961173725263986  2.8449001390684132 11.3463240728876276
  1.3422984916629714  4.3630281242376885 11.4409996118428801
  2.6653964347077710  4.6317863601539173 10.6305102845828365
  3.2337344735030693  6.1457300788561176 10.7958397788410974
  4.5173559111744970  6.3454733072187475 11.6834786279016640
  5.0404556826098696  7.7314770620996232 11.0981930008149607
  6.4315544312773758  8.1768057147688893 11.6098965123634343
  6.7414327290405947  9.6042321475621986 11.0982878110401053
  8.2687015541848279 10.0235582641717240 11.5392913448398460
  8.7805355622121262 11.3201431657690019 10.7974343058466165
 10.1988790311346396 11.7432221001413613 11.1880769655227397
 10.5486833612812383 13.1887500496471191 10.5475921936097041
 12.0036875755998906 13.4052556848605455 11.0590919048484189
 12.5031675357649306 14.9324676240836602 10.9101323332661764
 13.9635431512862418 15.2965336563793421 10.2388444728357566
 14.2755161174054912 16.7443462707455595 10.9102252383919502
 15.8478524647033812 17.0753833977926597 11.0592845911343947
 16.2497992048322786 18.5169764726190813 10.6163485220511635
 17.6439341307959729 18.8904865533278681 11.2234896470206085
 18.0110450901638579 20.3368048749505519 10.7633126690923007
 -0.0031646083924142  0.0036318139591340 10.6847157595107980
  1.7625145512095564  1.9289374371793968 10.5845583182097300
  3.3388139233991181  2.2369916324203385 10.5683131077109120
  3.7281718818757339  3.5733219473168472 11.1579187910660895
  5.1780588863309598  3.9956841310836086 10.6835485799570655
  5.5876107917353650  5.1566312339913978 11.6318598077003603
  7.1123148470167870  5.6624180028711368 11.5391120524906530
  7.5127976011037330  7.1947648992313971 11.0982098884346758
  8.9746303926196944  7.4347237625859162 11.6835847595146518
  9.4690729655417947  8.9560150962863876 11.6320580736643215
 10.6793099319619422  9.1818470435505724 10.6838218167825403
 11.2501121309600993 10.7033414762846135 10.6420764147450218
 12.6775736350945287 10.9422405372987459 11.2231225320728232
 13.0511658964839246 12.3363932442910471 10.6160726030701156
 14.4665392081454467 12.7858086779540052 11.1158752935598368
 15.0090729624280197 14.0749690191096395 10.4100609212887196
 16.3630247254495451 14.5333052541613057 11.0554837669449011
 16.7628818731364859 15.9235877959748748 10.5477846657763177
  6.2103102839053026  2.7406105719483560 10.6417065280453844
  7.6364953763195196  3.1310275350390753 11.1877187766508914
  7.9792657043994293  4.5709152167049112 10.7971712072906048
  9.4609333109059861  4.9432753974571515 11.2634818871702578
  9.7894717234180568  6.4229848281325959 10.7959460099415878
 11.3847634272575124  6.6877686432610917 10.6307138648249193
 11.7700043850267413  8.1373686652150035 11.1582054604009429
 13.1220110722354022  8.4683652518824637 10.5686862731333520
 13.7465617860204556  9.9011852557003284 10.7628635138253639
 15.1075324836150262 10.2481663391732294 11.3202410800080120
 15.5296966382757020 11.6952369795730267 10.7298821188620170
 16.9275754355091692 12.1363263572456912 11.3195259217171049
 17.4977954396301669 13.4535482498703125 10.6700256595306033
 12.2790201937244454  5.6762765849612746 11.4412076798905513
 13.8668531510697761  5.9623380787886235 11.3466302825692260
 14.1769426552999285  7.2572764523955700 10.5849363826685359
 15.6366666192949531  7.7128964067595724 11.1923913899341070
 16.0241475027227338  9.1557901328001954 10.7659499160626932
  2.4852554008207188 16.3440111955401228  8.5938575897652871
  1.3236781868091427  9.6758920456420778  8.5979774472197228
  2.5673643494671414 11.9647242840809920  8.5630400557030537
  2.6242276775007185 13.4557871416807942  9.0233319085173136
  3.8494346298774507 14.1425119576099529  8.4660311134694002
  3.7605255533238529 15.5657255115061588  9.0203474416005616
  5.1083022630018196 16.3286226709179090  8.4395650908850328
  5.1770484487818251 17.6583359444420793  9.2013624141373214
  6.5313976719509528 18.5216738157772411  9.2176935500248263
  1.3445173452809904  5.2836770928354824  8.4664789150648492
  1.1700536091177054  6.7083337829491976  9.1160870785475492
  2.5638495208149146  7.4231537461730532  8.7306992340593119
  2.5734568232604071  8.8697241428945990  9.2385092790070402
  3.7768528415483877  9.7157916033360276  8.7270871804911145
  3.7989665655755118 11.2121744586691339  9.1701374703507774
  5.1341912593850099 11.8621839260534205  8.6704162766264279
  5.1527030645427008 13.3851034279700247  9.0564410597510552
  6.4695183915105705 14.0290884468577346  8.4668779188089900
  6.5504332317903122 15.6052309188812117  8.3449480047097317
  7.6942141830879773 16.3224939887659488  9.1555096502809139
  7.7346263684121608 17.8219071176089159  8.6281336367054386
  9.0761590491879360 18.5152862779906258  9.1025852874469617
  8.9589083627318757 20.1360892608177551  9.1444534811677798
 -0.0031413448897868  0.0036906407636663  9.1003772656488593
  1.3318603186479738  0.6757374933536406  8.5932602529210218
  1.3682172091064340  2.1692781689081952  9.0198164302468644
  2.5563316926405490  2.9579062905234306  8.4655985367581845
  2.5606004538763099  4.4652487155935541  9.0560732104731336
  3.8887641163158886  5.2106932783982947  8.6701522051965849
  3.7329205749714585  6.6006000797350524  9.3760719023334378
  5.0812125275216378  7.4766329279599031  9.5473703009818927
  5.1913985307226573  8.9536234681336673  8.8761036913636850
  6.5003370619950909  9.6964635701374355  9.5474737801810647
  6.4158147245475776 11.3021467308237629  9.3762853468168466
  7.7126961106094081 11.9033591492512194  8.7309407639340773
  7.7905456364525119 13.4678054714621744  9.1164342788715818
  9.0462132215110813 14.1052249230708053  8.5225861539654453
  9.1495171428446103 15.6174074482252241  8.9902396218870813
 10.2172130701930222 16.3574950386841316  8.1026696424528541
 10.1731475112073753 17.9565091734520017  8.1543185035402352
 11.6264069990288768 18.6410260357525850  8.2471535850340629
 11.5021092250942836 20.0293704094944829  8.9891157343929873
 12.8322485870670722 20.7809007206723031  8.5228880525095807
  3.7636259857461716  2.2401845491162744  9.0229339807673270
  5.0833804677017236  2.9364907627688179  8.5627427967028336
  5.1192741162603692  4.3793382306594548  9.1699043427579330
  6.4262603406940917  5.1083975167526212  8.7269555434299626
  6.3790365861456095  6.7145076402904804  8.8760383219210546
  7.7132044704215481  7.3575501531028156  9.5474050094431071
  7.7243484801261353  8.8625901882177178  8.8761380195600790
  9.0916767738790565  9.7065489274969980  8.7271657705686518
  8.9606642460666066 11.1717193075124896  9.2386887695280535
 10.2837089097623604 11.8510189558388142  8.5981898075836387
 10.3621019142151987 13.3290356281377349  8.9888519422048088
 11.5023344979292723 14.1308845610197409  8.2469855930269862
 11.5515160470484659 15.7139025758489765  8.6880101872756814
 12.8663377254153151 16.3501409803078666  8.1763868126171158
 12.9727547474518339 17.8068944370832689  8.6881081535878035
 14.1972676999406211 18.6406783411056978  8.1028124216953223
 14.0901897702969237 19.9353136422986559  8.9904712995202498
 15.4284656188830347 20.8430885638904293  9.1557897363559899
 15.3791798732231513 22.1923189334008875  8.3453204749763099
 16.7267219115284007 23.0795386344129234  8.4399847612630001
  7.6874086086791245  3.0038413761565241  8.5978223550136725
  7.7606467798756755  4.4892376983002098  9.2384223195160011
  9.0182443911891870  5.2042249991799130  8.7307109208827089
  9.1460264071770982  6.6279190445336527  9.3761523603056585
 10.2718372811152694  7.4578673666890234  8.6703290714500980
 10.3765298752227206  8.9391762350011241  9.1701507287051420
 11.6440519008734782  9.6295414059505706  8.5630870874685563
 11.5412726327407107 11.0731929402341507  9.1441560341495887
 12.8863061568637391 11.9851382160062236  9.1023994427929100
 12.8217782418463688 13.2145874212033849  8.1541822066771950
 14.1845352509841316 14.0522582983007940  8.1026431229339710
 14.0747194758286991 15.5295696035722219  8.6880409044690126
 15.4702677836671434 16.2785051805986711  8.2471238799091680
 15.6040876504739696 17.8793294284190267  8.1543958910676171
 16.6365065390685345 18.5498963052161763  9.1026976108710862
 16.7067837126566339 20.0584196838962363  8.6283473288354706
 17.9144201550277735 20.7505230340045550  9.2179412966235645
 17.8439221132367862 22.3550938968196071  9.2017208527830316
 10.3341739148345972  4.3545555427986136  9.1161326529489646
 11.4807661016005582  5.2180018316834120  8.4666240934971899
 11.5814723354256071  6.6803493615379912  9.0562869559377557
 12.8890353647268441  7.4303490101984702  8.4659145522460584
 12.9069233866141353  8.8347334819493462  9.0233113652124377
 14.1531489190699027  9.7781113875744055  9.2174795842240798
 14.1575821966641850 11.1700471299931454  8.6279807181550812
 15.4762897324689721 11.8847327689933415  9.1554590111090004
 15.3592698876020304 13.4976124508989113  8.9902525442134138
 16.7205354910182322 14.1642600483112187  8.5227010772038057
 16.7347657367781899 15.6919277481711692  8.9890330089262687
 18.0987888735290667 17.8410342594369880  9.1445021908502326
 14.1660348233005937  6.7957018124356781  9.0201739226217033
 15.4776808219826343  7.5110045198974236  8.5937197025628951
 15.5779969212228711  9.0368802247367519  9.2011938316877302
 16.7639770751440160  9.6422338370362102  8.4394876155986722
 16.6693922149337013 11.2528557685467305  8.3449345825903585
  2.2569346169601809 16.3665386037060010 12.5655889883227179
  1.4262950653697983  0.4665712092180290 12.5649877715285356
  4.4537236873841319 15.9665077618323359 12.6826089522684988
  6.5132704151401759 17.3823842273649376 12.6890970414538753
  8.2195165316911183 19.2458666124247486 12.5989817134793007
  1.4362103542027653  9.6585812335275971 12.5649499665705928
  3.6806858107107416 12.9482456552398091 12.5224234793500386
  5.6199191562721298 14.0637739354785456 12.7502348877224669
  7.5594429043902664 15.0701316991794982 12.6388237398086272
  9.1920183388294401 16.7863466935003878 12.4731365782685675
 10.6059224085566370 18.7529190607340581 12.4161429417114579
 12.6775604944947702 20.0994035011486645 12.4203923534861786
 14.4113090698631918 21.5857468794148133 12.6391648392175657
  1.9569540741981182  7.1412599409275801 12.6302467688288012
  3.7543561403558181  8.5620757252344664 12.8714251838614064
  3.7462898212251434 10.7271003896750834 12.8792820379761377
  5.9611808946926299 10.9982224249939335 13.0213366280242617
  7.7720559661367199 12.5696270985936724 12.6305331930780707
  9.7135401134597714 14.3118427474935839 12.4201355236246496
 11.8711432388398332 17.0829486028820554 12.2419460268850742
 15.0813052183619991 19.3137995297027949 12.4733160235180911
 16.9368654969046801 21.3356298772605193 12.6893952663169323
  0.6743314929004749  2.5690567385148078 12.6820563634353896
  1.7390463361037498  4.5303753336562957 12.7498253256398559
  4.2232467057006629  6.3586814885243008 13.0211392443042264
  6.4315337340337884  8.1767542847160914 12.9931330112815786
  8.1038201108125527 10.3026071429962496 12.8715542041137638
 10.2124911795160571 11.7619481488740245 12.5651570234633336
 11.9154498891114216 13.1909930675916911 12.4159568645458158
 12.7290852338342440 15.1216998745206244 12.2418867402417959
 13.9986051588595632 16.8453240659128198 12.2419688630036934
 16.0774544481798820 17.1060401776117850 12.4161633840833510
 17.6975652620681245 18.9262431554953032 12.5991083598905540
  3.6747518355665956  3.4087250714218724 12.5220706834843813
  5.5654982464129326  4.5760973134308278 12.8790816420147820
  7.4364330365580651  5.6655932245258986 12.8713717035873536
  9.1101744941106535  7.1733557725416732 13.0212413737444841
  9.9828190519883471  9.2270782813980414 12.8793193314274248
 12.6817379472070098 10.8778225888238360 12.5987367750913144
 14.3255004571658002 12.9497994068520388 12.4730699397390730
 16.2077264362523508 14.6387056221480520 12.4202430213076092
  7.6459207794707282  3.1097817481257617 12.5647972409778284
  9.5656093097751480  4.8194163036592101 12.6302711992377930
 11.9391865720980288  8.1733455126973364 12.5223680143483236
 15.1486786694286533 10.3319077169216236 12.6889613117567492
 16.6280643488655073 12.3940484225772316 12.6388573798517339
 11.9356489222022120  5.9361402077784433 12.7500260914244183
 14.1665611760458994  5.9947327933788905 12.6823802491576032
 15.6113905109069631  7.6972008178518712 12.5654625754289349
  2.4561945676714818 16.3379898205620080  7.2207848480730226
  1.3465173032571001  9.6717347365696433  7.2208984688626856
  2.5260489171200322 12.0142923181908579  7.1874246563098572
  3.9370364100406303 14.1102320791570808  7.0973146872176889
  4.8300029367964781 16.4445509703914006  7.1038209538306560
  1.7046977060461557  5.4462846840119434  7.1471639571694006
  2.7426301581584323  7.4804410002306794  7.3659464048636396
  3.5653061838281630  9.8102286132153012  7.3702133421796345
  5.1451160381567629 11.6461852522202083  7.3132178763856119
  6.4302371949677291 13.6359497854686023  7.1475364049684025
  6.9532892964217838 15.7574889317398945  7.0361458517463058
  7.5825378186438535 17.9043627569918016  7.2639757833430982
  1.3516807220614728  0.6536401595011625  7.2201876317867608
  2.5405603748638721  3.0499702598019223  7.0968852106653397
  4.0704352993872144  5.3282117978616501  7.3129686872548989
  5.4855766717134538  8.9722756341678753  7.5443647448116993
  7.6729042223661645 11.7199801932278636  7.3661758051547785
  8.9107999502639235 14.0161274685015336  7.1557884152864490
 10.0133062444466177 16.1452277466469667  6.7649942985494311
  9.7570366474419732 18.3618834061507599  6.9070837801674241
 11.8634839627796804 18.8621611431158165  6.9149101960304895
 12.8227809164226230 20.9428142637664436  7.1561014467551995
  5.0611842756604641  2.8759859057421981  7.1871236091922430
  6.4503214735440997  4.8780326965461214  7.3700730928518245
  6.2158668290583501  6.9600042820653591  7.5443009997342934
  7.5933997411959888  8.5985894608910449  7.5443822665345674
  9.2792213141582973  9.8426278756752676  7.3702993833583781
 10.2686751443815236 11.8334118350438633  7.2211098103316900
 11.1923588715337878 14.2256883600627333  6.9147296638503404
 12.8663584973754013 16.3501912437129349  6.7931502745495846
 14.1153789420760862 18.9234913911638216  6.7651571803954811
 15.3095977511035564 21.7673960419724430  7.0364899226630531
 16.9662549818575634 23.2626803547451715  7.1042507982647054
  7.6796632029369061  3.0257587584428149  7.2207438856050175
  8.8793150688872746  5.3304694471211569  7.3659561023799478
 10.0793005129535658  7.5564986369030755  7.3131394683580062
 11.7076222117840079  9.6406311214293083  7.1874717708788483
 12.6788365255774291 12.6515919395677177  6.9069153317107768
 14.4703903598736829 13.9818603991838248  6.7649803960305990
 15.5432247519349396 15.9627135434966139  6.9148583508042760
 16.1631951686575270 18.0370890268970676  6.9071662806191876
 16.8542212107830380 20.1489965678126524  7.2641939987164204
 11.1599247783474418  5.4486805382516170  7.1473018443583145
 12.8172649169249269  7.3707175134784029  7.0971947690036528
 14.1622915367236555 10.9971671068505934  7.2638155482948310
 16.8654768564864277 14.0915959789556826  7.1559080913671886
 15.4869828190919794  7.5392768210141385  7.2206487653023901
 16.8028030313397565  9.3433128572755528  7.1037327763711486
 16.3361759338913295 11.5256662709100848  7.0361260356729787
