C  F                                    
   1.00000000000000     
     2.2228403468283351   -1.2835422735693462    0.0001742321594243
     2.2228319214539565    1.2835292833645353    0.0001747447549562
     0.0015985916380826    0.0000076328707739   19.9766193565960997
   C    F 
     4     2
Direct
  0.9999468018278853  0.9999467456023331  0.5034427753748408
  0.3332722781652903  0.3332715238708072  0.5286188961616093
  0.6665642869375268  0.6665572004545436  0.6315593947766532
  0.3332393132891072  0.3332329241846418  0.6063829664661471
  0.9999655954810767  0.9999612078951909  0.4344509342200978
  0.6665401887238416  0.6665374574218458  0.7005514802762266
 
  0.00000000E+00  0.00000000E+00  0.00000000E+00
  0.00000000E+00  0.00000000E+00  0.00000000E+00
  0.00000000E+00  0.00000000E+00  0.00000000E+00
  0.00000000E+00  0.00000000E+00  0.00000000E+00
  0.00000000E+00  0.00000000E+00  0.00000000E+00
  0.00000000E+00  0.00000000E+00  0.00000000E+00
