C  F 
 1.0000000000000000
    24.3458002602304084    6.6372753805369324   -0.0006767452923213
     6.3829019962633629   24.4239963057834899    0.0006089879747405
    -0.0007762886700450    0.0007232534910747   19.9375292426983926
 C   F  
 388 176
Cartesian
  2.1932682490010915  8.9472092469787246 10.7627109691501630
 15.4779906085748031  4.0297889908965798 10.5520578819718853
  7.8306157934123766 24.3578973352380821 11.3738729630261393
  5.5482639052027443 20.5791623947991482 11.3411375324087658
  6.1091385003879708 21.8798218965939597 10.7523310337871809
  7.7163954482406210 21.8183455769348491 10.5649790825555616
  8.6035805617246854 23.0978498994335979 10.9641770225083004
 10.0378748104852455 23.1257575663528847 11.5507281818895429
 10.9074553933577185 24.4227563983263991 10.8990938999400075
 12.3397466979132240 24.4559928404311542 11.3344223254623042
 13.0209234181936981 25.8962678774777473 10.8305990081530563
 14.4895672437623855 25.7532120758836101 11.3117018417889259
  5.5392347661399484 17.9875524425624711 10.7369125080442060
  6.3209281615644750 19.4274854192805400 10.6638989987028747
  7.7611466334764891 19.2567894576450520 11.2102187949308085
  8.5317278017271168 20.4396209494159287 10.6399553581576534
 10.0644296705119682 20.5468465465079611 10.7789469384340517
 10.7255656193781039 21.9281852896959144 10.9761680692448049
 12.2052862103434876 21.8363717648249143 11.4616806905608755
 13.0027090176273532 23.0243520465529912 10.8776035361992491
 14.4959190729797456 23.1743281688571194 11.3024428506010306
 15.0048070498170532 24.4396463397077390 10.6424232880559355
 16.7345004712783663 24.4750213240099654 10.4620195046226403
 17.3714654248921185 25.7316161956305223 11.2584936018910593
 18.9765530265245630 25.7452896084222473 11.4810285868867421
 19.7420963484404659 27.1811172034155426 11.3926996156385290
 21.0448984196466817 27.0471334382710680 10.5656416114701717
 23.2178580155535883 28.4588622676544851 11.3002315987960422
  3.5724532237530391 14.1570780053436067 11.1858553710127939
  4.1966942324267631 15.4878938251563962 10.6401759777477096
  5.8176863447285632 15.5015991254421746 10.6997103443227797
  6.3615431692574411 16.6831838820046237 11.4523548221437732
  7.9453916694840494 16.7040203014377298 11.4249514553019615
  8.3896065425740751 17.9261439566905771 10.6651274778226401
 10.0528592645760622 17.9473672885094935 10.6430304840111951
 10.6656797927427949 19.2789590303123539 11.3582677498002784
 12.3026219719664773 19.2709213526346304 11.4174186739712038
 12.9615807237741087 20.5826967232624298 10.9038404957601696
 14.5171492018051129 20.7218360497476795 11.4333434901656084
 15.3202759808945217 21.9742329394323370 10.7971286665910799
 16.7857483949067507 21.9750190620069610 11.3599536059229695
 17.6094247869623644 23.0968348305054363 10.6899119654788226
 19.0304366891329124 23.2604845249111705 11.3093545548185013
 19.6531938017664736 24.5614101965885681 10.6542314871652408
 21.2842920913143239 24.5865879171086092 10.6340182335417612
 21.8406191790629727 25.8352703892789499 11.2808102936783783
 23.4325453678803868 25.8968037834026354 11.2820251576183797
 24.0787683493851929 27.2851025427298346 10.7908955634634189
 25.4966885138257808 27.3365404837418957 11.4125380172019977
 26.3597062659360368 28.5470901026440842 10.9371836879419746
 27.7310568702129885 28.5825727961394556 11.5484835610494354
 28.4413407517313885 29.8063364779204214 10.9424891811856977
 29.9158886052392603 29.8332397490545631 11.3706413693798964
  3.5124088473544695 11.6436638302526845 11.1810138457735864
  4.4013695519677833 12.9381398489820274 10.7528196303950310
  5.7914914350342759 12.8470300837864073 11.4084885010100141
  6.4990836672916679 14.1015761468333114 10.9097323923651732
  7.9650127194339015 14.1558582520829201 11.3427404344210565
  8.7259412406762387 15.4218100269283607 10.8213103033214892
 10.1675022324427999 15.3523887750064922 11.3962572075418187
 10.8001951520415247 16.7925178511862931 11.4684934217137187
 12.4507833297513191 16.7346552413172383 11.3868330598889855
 13.0303161620155237 18.0276192551911087 10.8124879252834702
 14.5912325321989442 18.0917129457211345 11.4835406919266401
 15.4436527606858238 19.4293372983612969 11.5303051707748061
 16.7254534678003530 19.4671685230384810 10.6705638345751552
 17.6040709318668185 20.7372772011153650 10.9552452806295353
 19.0210067325056080 20.7458134295562679 11.5360517241078906
 19.8583934595061891 22.0079351344387746 10.9669573064833443
 21.2772717464961474 21.9639049201337428 11.5240432706853131
 21.9629084238931114 23.1928701525398289 10.9254219747879642
 23.4445429281636422 23.2816685590820818 11.2973651075004575
 24.1484154667626711 24.5431587068427071 10.7044687544702750
 25.5778082861786160 24.6534860809463119 11.2576569121900043
 26.1660043774539481 26.0455927908864631 10.8964832571739585
 27.6317640376782023 26.0139302573948576 11.5504822850888100
 28.4131746776840863 27.1611828888832072 10.9599439772381242
  3.6024909190339685  9.0719513986481015 11.3499795535573949
  4.2694288765372459 10.3992386078247669 10.7490811377113626
  5.7636795604546549 10.3383090107405202 11.3490755195657957
  6.5170904065762185 11.5314635067255136 10.8278408526600352
  7.9998782953087204 11.5781745000435095 11.2304126672622395
  8.5572879342477748 12.8954565889308697 10.6806666601692211
 10.1672424096396039 12.8889565621117050 10.4795665473890995
 11.0503190410019538 14.2410717802435389 10.7669247517181201
 12.4475688854135509 14.2351751256488352 11.3969639142532433
 13.2658846561382013 15.4981048577359672 10.7979162088467415
 14.7186321690057849 15.5471372086135062 11.2437175146710260
 15.3805052650635101 17.0278860060267192 10.7704994827809877
 16.8504706899562109 16.8866365640488674 11.1652913061971546
 17.6250255013531678 18.0872874847954961 10.6074926056705667
 19.0088278464797007 18.1554481894439554 11.2814330322069427
 19.6905706788522927 19.5000173293269619 10.9632956265360928
 21.1998519618126444 19.4033259227008692 11.5169839582988018
 21.9466855370070668 20.6146913161229151 10.9579660760222062
 23.4542878967678945 20.6967465101868378 11.2740165225155700
 24.0112289310371239 22.0002342380191926 10.6334313896562556
 25.6619177291964711 22.0643610032344313 10.3242235899287369
 26.4699146917405770 23.5708869454476542 10.6114132884413817
 27.7776193304500865 23.3278921821438630 11.4065316722075902
 28.5749370188330438 24.6792942597135614 11.5993490921103675
  1.4700937927389044  5.1425564678721756 10.7258256360863005
  2.2667913316058375  6.2943086188476123 11.3093509317106200
  3.7436212393940886  6.4164329628323609 10.5952572368692266
  4.3756874111671324  7.6199350917939119 11.4173701925448210
  5.9365684797267022  7.8058360922401109 11.3656221554502430
  6.4555705410266730  9.1142151325251319 10.7362525099726671
  8.0633960694208628  9.0046793747037235 10.4807451894022723
  8.8072756249821609 10.4586587143733318 10.5239867825785733
 10.2331056290360554 10.3499094131168032 11.0833937286876747
 11.0587274285561001 11.5224238741179761 10.5414808392690915
 12.4155342330420524 11.6696482450710022 11.2789105018801870
 13.1119881414801771 12.9846861221568162 10.8932223450529779
 14.5925343391357103 12.9796116213706263 11.5162690835466925
 15.4030515524804734 14.1392059560751662 10.8562972767030761
 16.8906665435261942 14.3055229906063914 11.2714082782504299
 17.4057036485867513 15.5595428239571483 10.5506100163734775
 19.0815604397190626 15.5735937549931105 10.3134352303232451
 19.8488255811507486 17.0201526316514880 10.6263985788894999
 21.2315153953705824 16.8572553783194543 11.2929549866743155
 21.9084794675778802 18.1896192983014515 10.9139051061042434
 23.4549477189770883 18.0685668146591816 10.6333399200987788
 24.2091458904831605 19.5423953116706670 10.5843224438059025
 25.6481490828627088 19.4702358743725412 11.1353104637064764
 26.5273484055209110 20.6193138852323941 10.5218863252630452
  1.5519388839996506  2.4704216905436422 10.5412503425261441
  2.3292348049864042  3.8790187246187475 10.6018494856527283
  3.7103428741818978  3.8347552474430300 11.2204742465949732
  4.5991797082694070  5.0052316200784919 10.6452514114864076
  5.9639857314440770  5.2109869243552556 11.3127617518608510
  6.6089583594028989  6.5258906057536068 10.8062546453937163
  8.0880278592417216  6.4661848916526958 11.4245605565178430
  8.8650604644294777  7.5875635843705016 10.7253378386006197
 10.2693279292529489  7.8048861340971261 11.2953830719180139
 10.8496822156628632  9.0445076282963459 10.5623364606127073
 12.4954042563554157  9.1377970974018705 10.5218362382298878
 13.3014838752661149 10.5313519047691617 10.7501393418114493
 14.6642446191202840 10.4043009979367049 11.4559032111157801
 15.3807114097911004 11.7403248546620027 11.1128019096312656
 16.8911066026461114 11.8227899532142349 11.4808023431113835
 17.6642057695891843 13.0991618117500082 10.7743308470346530
 19.1133492263362115 12.9947545633102912 11.2179001697979750
 19.9791973966175824 14.0938647120345841 10.5457631166029380
 21.3292729182335741 14.2944600383430149 11.2161320611854780
 21.9647953469881365 15.6034074427928200 10.7210874742506874
 23.4544025858240985 15.5321199621640975 11.3705506060301254
 24.1251556169920640 16.9746406272308477 11.4842647367217339
 25.7126699952384250 16.9081102461679045 11.4331907332975504
 26.2436305033911239 18.1231304642592370 10.7223239275307325
 -0.0156052004779408 -0.0001787262734971 10.8205948330164912
  2.3101216443044361  1.0541736991547579 10.7458608637988995
  3.7127755660283865  1.2331846361467460 11.3482855630324462
  4.3055563946327631  2.5146123925121091 10.7733981257689901
  5.8865648777462489  2.6760773927928008 11.2729793799552134
  6.8133424508015272  4.0014278968602355 10.8768339456768448
  8.2128034595053006  3.8381299597550509 11.4808776993280084
  8.9202001670101758  5.1595292884622612 11.0897801458811482
 10.3460960585655144  5.2820904254491010 11.6275991424829908
 11.1152823260982014  6.5426834713542563 10.9976607283806782
 12.4792956623078855  6.6663475694662804 11.6695005787144321
 13.2072256465734732  7.7397864082172738 10.8639842762981722
 14.6387138750537318  7.8886445481562752 11.4249567283338926
 15.3772844100881372  9.1031876643328538 10.8434504430262493
 16.8384966861003385  9.2021405451056975 11.3262781263058550
 17.4572666862192953 10.5404344331650677 10.8745906654308371
 19.0644272469543559 10.4025734459245047 11.2517215855439598
 19.7212965761336285 11.6471401269631691 10.7692307030432453
 21.3046716738190263 11.7923335335181072 11.2723754834192178
 22.2106064070494433 13.0777248927778889 10.8054901344523699
 23.6343472617790127 12.9833139463787077 11.3984482378648480
 24.3480552609125702 14.2597289022436637 10.8399112976084240
 25.8088905441036189 14.3471610339601998 11.3586861310038216
  8.8789888656815137  2.5420302695007315 10.8275681141062741
 10.4351495822949207  2.6886495069507546 10.7869347712239545
 11.1318905601481060  3.8735571089708527 11.5365375870648297
 12.5745209591734159  4.0532585171028117 10.9795538986970396
 13.3134304921605633  5.2796842347373563 11.6670672686038657
 14.6038236973891351  5.3503206286496070 10.8236838369094386
 15.4839490162637698  6.5452547498906393 11.3204225850294105
 16.8922939705704209  6.6626044905045756 10.5956432845296558
 17.6861690990129077  8.1230100247310055 10.6509699390961412
 19.1429208048255077  7.9427326536627172 11.2127991191251812
 19.9870730201048872  9.1159427946450471 10.7584380269550710
 21.3951297777826568  9.2500894681443508 11.3228939490747678
 22.0564359099138372 10.5655062221573797 10.8584767632564709
 23.6085232164886847 10.4672553637584418 11.5085032208072153
 24.2953617281879524 11.6574998807270394 10.9217813209948229
 17.6917342500840142  5.4494757689931568 11.2956817641306362
 19.1051660359816573  5.3543676362018369 10.7223514053735265
 19.7824118620665423  6.7283630470843736 10.5876470307823780
 21.4018446676238447  6.7621396159895104 10.5323748307483154
 22.2497675419723535  8.1225839796229291 10.7264186927289096
 23.6515702409149213  7.9414018693539701 11.3560981663192546
 24.3521360310719537  9.2364274798714270 10.9319500776473824
  5.1814063860342170 20.6713883756343826  8.6576878649394828
  3.9010949052023607 15.5024943687493284  9.0449605445258658
  8.9434243571777614  2.3126896258869367  9.1968550822048591
  6.4528867297177657 22.9493514961200304  8.6093404120664481
  3.8690497890995110 14.0379070112218987  8.5593721679517696
  5.1411788402306371 16.2522212288463166  8.5722856323382448
  5.2294500156428434 17.7286664185806089  9.1860122349640303
  6.4791378853764678 18.4373324503556191  8.5677870758148806
  6.4296835074907133 19.8743427942538844  9.0570243006340601
  7.7052734911267340 20.7600324777413867  8.4435485097780418
  7.7145127675096345 22.1890912166140772  9.0347423600815180
  8.9773943572850765 23.0761514644423507  9.4358839715188321
  8.9141465981468322 24.6782254758433801  9.2335554022545896
 10.2167318060525041 25.2338068368123309  8.6372707899277472
  1.2241293145014727  5.1983622188027487  9.1855682919811148
  2.4872107886063581  7.4168758274876820  8.5214663963681048
  2.4620572610234754  8.8622329727368143  9.0950664645663188
  3.8279464723783558  9.5810790060001079  8.4120489519809762
  3.9699614732273156 10.9029638064617913  9.0984922967874731
  5.1559126060725404 11.7460278777879861  8.6652725060422835
  4.9776313450482705 13.1728936991015484  9.2409440282860889
  6.4166401616759918 13.9092220781180007  9.3793122157235107
  6.3142926109337596 15.5255488862980862  9.1915778428231043
  7.6497451644981993 16.2272183580755360  8.7263136038132298
  7.8175678968844595 17.7655362495365381  9.1045424080790500
  9.0156630956057295 18.5793901520298661  8.5385049092184797
  8.8955013330161119 20.0660164129960386  9.0290773939835347
 10.2612447695978872 20.7309272109256391  9.2411629123621797
 10.3633840055312412 22.2544143183284042  9.3747121963555671
 11.5356001967893658 22.9969441354457942  8.7621237971830581
 11.3757997913086193 24.4325436609511684  9.2169051157863127
 12.8244998194976354 25.0991557655864099  8.7273793640940038
 -0.0095609192108924 -0.0078145559602024  9.1456259484175071
  1.2223157837914662  0.7846152859438255  8.6006163787076968
  1.2492218612358921  2.2601060595155258  9.0116254986018944
  2.5002339071158088  2.9567050182967844  8.4271975828404475
  2.4862164414859729  4.3375692159454742  8.9970845387688598
  3.7104534676032528  5.1579483556903734  8.5083116863297743
  3.7183614198886410  6.6260008139131061  9.0494887191293376
  5.1206313624982611  7.2821228040298553  8.5089193034347037
  5.2478414558928188  8.8604337641858795  8.3727437168740320
  6.3737180806501632  9.4886414633381939  9.2194911853886126
  6.4460909455232898 11.1254299639083740  9.2397944909814100
  7.6867679289253656 11.7382835318578937  8.5524676916906532
  7.8194960326255813 13.1425517578136972  9.1718878382345164
  8.9310019974356099 14.0202382577675060  8.5718383870300254
  8.8934458093779867 15.4730152141932376  9.1918926752977530
 10.1321381802429595 16.3079608444144561  8.5493725894657739
 10.2677086875659214 17.8499932841388969  9.1000060759257444
 11.5659514799926360 18.5258455942333029  8.5793472017997203
 11.5357341656554677 20.1523451428559568  8.6490994546374029
 12.8754589976361498 20.7921806107858878  9.3611892546937945
 12.8982718757977715 22.4398883554979918  9.3331796905131572
 14.1827494450091951 22.9678738088666883  8.6758706666717966
 14.2988199483003733 24.4312711248504257  9.1347466273974174
 15.4193423221817145 25.2879654963168150  8.5448743480144564
  3.9046658681002668  2.2824567612253563  9.0861941610572803
  5.1590414345045978  2.9775982127355043  8.6575149573481429
  4.9959667165958637  4.5443786256242857  9.1056437644965111
  6.3564949909095594  5.1682402111693193  8.6877922616322572
  6.4469102594318208  6.6236568959234283  9.1661885412410431
  7.7133176958388940  7.3452848389157381  8.5911565094134890
  7.7818335626985577  8.8323514534190473  8.9551335615257504
  9.0167259474919721  9.5198536929589963  8.3677978243421727
  8.9525548955926659 10.9456578584847612  8.9034983327297397
 10.1992071194870348 11.8031334864144846  8.3621092799562948
 10.1840272790259050 13.2183532709495744  8.9598331675268206
 11.4374864743648246 14.1166997004438830  9.2555330921936019
 11.4463822086358480 15.4084705534794111  8.4157067204034579
 12.7792679708856411 16.2756199425125594  8.4667864536254420
 12.8307099476515027 17.8327931991771607  9.1522092315221624
 14.1020703064269579 18.4476317798524008  8.5570607246873998
 14.0312217950376610 20.0932843761158821  8.5197773304643327
 15.4735112768664909 20.7326086938787419  8.5710440827429419
 15.4099124028596606 22.1633738374656524  9.1672480245475807
 16.6574272580948950 22.9887568614838429  8.5650979805480656
 16.7120347016889177 24.5337666843653253  8.9418475746893638
 17.9992450076721013 25.1614143980264195  8.3997283311267683
 17.8858717147733230 26.7639447713838230  8.3645085168268949
 19.3077955897820779 27.5197948061395437  8.5335232555239848
  6.4726964125383546  2.0922127257754415  9.1688213683124768
  7.6707270390349294  2.9627387425504303  8.7015469975874264
  7.4344495994618738  4.3496240994589632  9.3724185063626422
  8.9200941947465608  5.1963232548145264  9.5765115784903934
  8.9811424684227905  6.8096155071398421  9.2922147213374107
 10.3080819173566631  7.3565182539345066  8.6804797312211726
 10.3646998470400185  8.8743870337898620  8.9572732180605001
 11.5663856616333813  9.6284359804005337  8.3958024978677699
 11.4519784884142695 11.1449138451898762  8.9388685707264575
 12.7864259857717766 11.8447100914898407  8.6280992206015714
 12.8312732944574250 13.2307255324884032  9.3098917980055571
 14.0174133196327215 14.0264834988833034  8.7569139354859846
 13.8550668114609152 15.4917645225020095  9.1652673059856458
 15.3240044938776627 16.1800311566428903  8.6830623394962263
 15.3572806506816111 17.6352445199338632  9.1287450954884370
 16.6092344642711112 18.4637480367699283  8.5268118475613033
 16.5919633536065732 19.8578800347849267  9.1646896865429746
 17.9340857356695551 20.7702250872126903  9.4299488611794455
 17.9070271436944282 22.4137820678860464  9.2293088668408387
 19.2355778177355248 22.9793993927315654  8.6851853679670334
 19.2931486374043359 24.5092022353592185  9.0654707821509160
 20.5242402230169532 25.2041437011616480  8.4960520967012858
 20.6319316411918621 26.7091188037453158  8.9835402432408564
 21.8332198939152740 27.4044076727112866  8.2748791203050391
 10.3554757105015725  2.9732474833856974  9.2293691691041779
 10.1282985941318202  4.4587892376476059  8.8349333465519440
 11.5543574935586353  5.2106544541065221  8.8013137068758507
 11.4818032812520450  6.6177235167473958  9.4173219858974573
 12.9103473320385209  7.3741940223821665  9.3217918381178464
 12.7821134091650990  8.9290241562213897  9.0091982511107229
 14.1001974103640695  9.6195794643239712  8.6271180413352795
 13.9256779248436491 11.0124905815014689  9.2868608914341895
 15.3588161503813652 11.7972083456100254  9.6017927954234139
 15.3516196955574546 13.4828359374990541  9.3665838665433263
 16.5958775417436399 14.0146701579834954  8.6453338626606850
 16.7439083953455778 15.5061293367337694  9.0627669659731520
 17.8922258442775757 16.3303166652648812  8.4005804082811828
 17.8715702238542136 17.8120343517254440  9.0224350947164567
 19.1810138611352947 18.5249140951363955  8.6310671053642203
 19.3133808227952386 19.8878235941423327  9.3604141651969748
 20.4813072954085307 20.7223401958755993  8.8170068344446495
 20.3548376693997604 22.1532917467435517  9.3734973543693094
 21.8106806037965413 22.8966999764496002  9.4017446909075808
 21.7082106851225944 24.4823351578745374  9.1138839745107365
 23.0287671062119443 25.0333729327640881  8.4887091977978208
 23.2396641311169994 26.5996758558089255  8.3553194801572328
 24.3643482519451560 27.2589510170109612  9.2501850734489022
 24.4767474807116301 28.7421371800226133  8.5333523785025118
 12.7805137665827022  4.3858966800307506  9.4075627688169767
 14.1639693899648478  5.2313592138079077  9.3151708322274427
 14.0487640486609084  6.5931124139030324  8.6070018394814891
 15.4379204512123831  7.4006997137488169  8.5795351021596975
 15.3577489441165049  8.9071843141389326  9.2106900116108221
 16.6533167552006489  9.5597788125473411  8.7027710816637480
 16.8408715507904141 10.9166415722103203  9.3714244889741494
 17.9292482140940663 11.7982710049067503  8.6992243895976920
 17.8094907538608638 13.2493313807271189  9.1409556757451078
 19.0765077742064157 14.0383109892164892  8.4371272034750060
 19.1409793298886584 15.5532225962432413  8.8030874223728599
 20.4686187336999623 16.2860824825352246  8.4607927785534809
 20.3309430953175294 17.6491898216871057  9.1625332714951782
 21.7246223073373059 18.4780136327480129  9.3935319848957057
 21.7937406903383781 20.1148604498313865  9.3486773534542067
 23.0404017335286859 20.6821267444779160  8.6233430692976860
 23.2278652542522757 22.1075614810779868  9.1671275639123646
 24.3462341822030339 22.9059079335873506  8.4683467718089904
 24.2997952845371508 24.3783333644620122  9.0852840134735739
 25.6527476415482987 25.0348773318784978  8.6625692399487946
 25.7948117809283630 26.4039331816793421  9.3190784876695716
 26.9603105078621539 27.2737204690337798  8.7752589859088168
 26.8693815127005600 28.6788937927106140  9.3499965055589893
 28.2608367445506090 29.4702025559804248  9.4183684780325851
 15.5087237438372298  4.3224933243178265  9.0131015211557024
 16.6749982629866267  5.1298589648332387  8.4593445920533519
 16.7389760638252163  6.5601437535999230  9.0431053279477691
 17.9970315627799593  7.2935880656826333  8.5030298395875956
 17.8822595065695396  8.7022957798218368  9.1107383868534484
 19.1582644868649652  9.6224384783832040  8.6481227250285428
 19.2837420416331504 11.2057664150358924  9.1510463283910966
 20.5198593090292718 11.8745291978173988  8.6685943616612189
 20.3617693533568733 13.4879772393690391  9.0493446150293710
 21.6893318095351901 14.1219340607839268  8.5939493958461703
 21.7792342361208036 15.5941785105633954  9.0792390974162718
 22.9918473744095238 16.3642928662843872  8.5105023389015404
 23.1841569157168124 17.7685348796088967  9.1222537011375024
 24.3802756407734691 18.4836125861727716  8.4918881572199609
 24.3137713723006392 19.8996533675416885  9.0029004615297303
 25.5798856429243990 20.6616608011505996  8.3851377723268943
 25.6364398086313869 22.1294384851494286  8.8119626182199848
 26.9661785206998772 22.8418406527706601  8.4487276029716973
 26.8546373449244236 24.1873138565979922  9.1629144417710631
 28.2312793269002285 25.1061926875447696  8.8690619183908321
 28.2781316799748907 26.7004189446211981  9.3033547297186718
 29.6865371346602487 28.7186515839432346  9.2408232911009964
 19.2142076497407430  5.1090330609948085  9.1651120625942610
 19.3232865480175775  6.6340202908820896  8.9857513948986654
 20.5109127103716169  7.3293763890283499  8.4132492613225391
 20.3910470171463416  8.8785229996624793  9.0631656186993830
 21.7013100812440349  9.5480668364900581  8.6033207030477890
 21.8167640570940335 10.9579227365058944  9.1656601411316903
 22.9789351314486687 11.8069837147579459  8.7017969856816890
 22.7824936926351427 13.2722317516206143  9.2600421636852950
 24.2182925616634073 14.0740660878384087  9.2972377558328514
 24.2564261310024456 15.4260758618548124  8.4587618281490897
 25.6418235532014194 16.3043511663647607  8.5031577342206255
 25.7183826606558021 17.7998723369787797  9.0816975021473816
 26.9913835510454234 18.4906915891766097  8.6290355985938216
 26.8688960039539424 20.0612914779331355  9.0137765861083654
 21.7398182296330837  6.5932668147879872  9.0036788274291766
 23.0332035238618467  7.2977292450342910  8.5889478259151257
 22.8355396640861201  8.7020877230088711  9.2064590968670732
 24.1873163688798343  9.5562168829610048  9.4001084626762150
 24.2026536685945786 11.1649510239580980  9.3217855054637244
 25.4393065218895948 13.2253097954709489  8.5863741588519247
  7.7992156428172414 24.4227585504428930 12.7494564916363871
  5.6426287387252438 20.5638369348738443 12.7215853974706938
 10.0626085301773553 23.2119241529043236 12.9136311807723203
 12.4087190589412764 24.4692646027781713 12.7143753494336238
 14.4548593797501930 25.7047204284380193 12.6869382599509617
  7.7262445784641569 19.2398535752261601 12.5907170354865254
 12.1189216775174486 21.8267864327089711 12.8392837346141473
 14.5830589572534741 23.3069029677852910 12.6725444816028450
 16.8643523345366724 25.5458258068857447 12.5409706646783423
 19.0981866111525136 25.4741210197589041 12.8129304939521589
 20.1111897172855301 27.4129893781631893 12.6938714786473401
 22.9378358312534516 28.2075350772873570 12.6300648350087226
  3.5207679257502185 14.1371199191733687 12.5593482485436283
  6.0551476503660808 16.4584940031591138 12.7709048654918238
  8.3158087381760879 16.7805602267564034 12.7416498944813732
 10.2553151317112352 19.3486100007723358 12.6776395123351513
 12.5595364156903493 19.2275173046224133 12.7729003155116700
 14.3569810584150375 21.0156548191907184 12.7692511037406629
 16.7428319016669995 22.0601138915456971 12.7340088922885233
 18.9558267773339431 23.2687360442154763 12.6854501867522842
 21.5298950736612795 25.7109030542062449 12.6162456834995389
 23.7355845761106892 25.8399402415304493 12.6219193487709447
 25.4205262769391389 27.5010282729350948 12.7808428642965648
 27.7655613074656031 28.5865923658557364 12.9144550716598587
 29.9790248088905322 29.8342693506567116 12.7460803057653269
  3.4963260867527000 11.7677927588564391 12.5501915890775919
  5.7988003242150628 12.7747732903066566 12.7767239995511588
  7.9681172907225211 14.1472871051740086 12.7210183102167509
 10.1361809035463803 14.9513853115002924 12.7201972857640921
 10.6169707755743623 17.1489704877451885 12.7778640813611144
 12.6992060283361923 16.5978177485668468 12.7338230051229466
 14.4961740801770986 17.8376760694152949 12.8228600372335002
 15.9966903123001689 19.4685861225066468 12.8126755136203467
 19.0262958972699749 20.7959678742070047 12.9078737792519593
 21.3539078966350395 21.9158450056091993 12.8932946404269266
 23.5349373161400557 23.2831592416326032 12.6725916060684494
 25.6253916132427868 24.5186720425152238 12.6296492784382615
 27.3729596032329034 26.2219981465586613 12.8867405049051502
  3.6013509224813518  9.3307543686778445 12.7023317827203268
  5.7243994315821070 10.3361111524835003 12.7188727751138320
  8.0855565203464117 11.5314122942158477 12.6086516087071789
 12.4433330741577706 14.2779673317464422 12.7661107369871232
 14.8528946835167392 15.5104451974968143 12.6133035038658612
 16.9135063759273265 16.8652087885229776 12.5453018706760488
 18.9557002301435418 18.0432848321620298 12.6557791296660529
 21.1466792272866648 19.3517836560497081 12.8881603960407691
 23.5834664647482128 20.6884004560001884 12.6477138766377113
 27.4760909412405141 22.9828278532780352 12.6974631592262064
 28.9773927885754006 24.7457345279259329 12.9083661124048881
  2.3736910353106357  5.9196743986115576 12.6348098266032043
  4.1872074213002488  7.2166201003422010 12.7214498534439571
  6.2700721039910503  7.9951040323616454 12.6949176373451920
 10.2175146636445771 10.3841557333459473 12.4606685695787132
 12.3061957355430565 11.6158490540151682 12.6548395319502358
 14.5059053874169930 13.0293296925426567 12.8864419190413830
 17.0046370194138774 14.3879720711372041 12.6445262496778703
 21.1769974493486046 16.7705435650976575 12.6676138457921983
 25.6419744368740830 19.5257887513897934 12.5156639203166460
  3.6695027264537523  3.8749990530990561 12.6005794386623435
  5.8662722816831563  5.2695729859977041 12.6925908988116838
  8.0234889985356155  6.5557768909495051 12.7902886257260722
 10.1636979317497094  8.0012551250253736 12.6553922141181800
 14.6060299034355054 10.3483469504692849 12.8280534979192034
 17.0234745147746160 11.9018638683376459 12.8446614626246056
 19.1550438101729590 13.0526267010590917 12.5953917873147230
 21.1784043433980003 14.3012154813052472 12.5860558378534098
 23.2674253938805826 15.2425075821661569 12.7028624588904933
 23.8212277813629392 17.4230149907792153 12.7709921312907948
 25.9904851154359342 16.9572212922464409 12.7699449235098186
  3.6793896820944769  1.2684174975247087 12.7311947366770859
  5.8145443739522005  2.7342400828291353 12.6531375950119873
  8.2484247045696080  3.7037353055502291 12.8512893762281646
 10.2778748058220195  5.5434155899219899 12.9727150952817478
 12.3357912187259053  7.0065398637477800 12.9876987014876395
 14.4674047923516547  8.0647597265594655 12.7789894771649859
 16.8535258055871928  9.0807156256630712 12.7072478025304623
 19.0678032119595358 10.3228020038028934 12.6313332112375978
 21.2430313286912416 11.8608073120552735 12.6517224662314831
 23.6806899678967291 12.9155110604104006 12.7766241538655052
 25.7049259245380988 14.6025132142449614 12.7124537758692906
 11.2959831611868839  3.4800974558079769 12.8483242479848681
 13.5681292852288635  5.1444219280469445 13.0040639653557424
 15.7343199234396245  6.2287649090150392 12.6391706058408744
 19.1437121725141139  7.8769715902896342 12.5929209212170861
 21.3875530840168047  9.2153710884428044 12.7062715180157895
 23.5231027917888120 10.4568198504450809 12.8719921766610934
 17.9227924284604363  5.7223464678389213 12.6321972089320340
 23.6118671385160859  7.8976764072072800 12.7323980737343110
  5.1000122971573889 20.7111709714345196  7.2764055547630999
  6.3918392109833055 22.9680614963121492  7.2334008161739929
  3.9748111160706343 14.0388478315553176  7.1818918248456045
  5.1642241420996378 16.3538539663707283  7.2061572229190896
  6.5034042641434038 18.3901070257418553  7.1898735628869375
  7.6248800991135166 20.7400034773822384  7.0792813317473371
 10.2130963059570981 25.1865328613428048  7.2542303515939217
  2.7034777528718847  7.5668218550461095  7.1649094513583824
  3.6099140702842085  9.7458071364048013  7.0728996398922712
  5.1974542569375588 11.7764032238366543  7.2826588701458039
  7.5370570640685335 16.1776734812128566  7.3459884476219717
  9.0387857295077136 18.6884694522149140  7.1623570372538046
 11.5243279754486103 22.9504233278950451  7.3817926076343685
 12.8006679496710589 25.0170156806738468  7.3471268103036769
  1.2335980440440526  0.7128273360843733  7.2248655000300417
  2.5700490671954679  2.8878193487895043  7.0647627852297878
  3.6350587826994731  5.1051031371778643  7.1306348884349369
  5.1457144611619334  6.9169769234398517  7.1811595373814647
  5.7335141373187524  9.0842746054909043  7.0833404251313929
  7.5836374917091351 11.7839981690055176  7.1755110413461649
  8.8688444368863486 14.1047645224570601  7.1970576809867772
  9.8209239658246794 16.4798819765348767  7.2196284894844389
 11.5963532791023489 18.2669650467303164  7.2223955219506601
 11.4289711249356145 20.5411435366392539  7.3276528397319121
 14.1298857152850630 22.8892146583736427  7.2946528955409748
 15.3819263176205361 25.4072831437444293  7.1735663496482127
  5.2421648980499578  2.9911813095940052  7.2776372356842440
  6.5127025466065271  5.0787924830628004  7.3205819109788752
  7.7468327350368753  7.2120763653121518  7.2203989292515276
  9.0684124607571501  9.4297046775893083  6.9980412326941419
 10.1382526416943737 11.8093914901872417  6.9897804169693787
 11.4087622006391598 14.8846863917448449  7.1227062084921968
 13.0370893001472261 16.3869504283698681  7.1306316842863691
 14.2154030697920746 18.2403807200122188  7.2003285607826486
 13.6538576832497878 20.3651061124477373  7.2229770705568903
 15.8401841030038444 20.7716205185349558  7.2380711174862231
 16.6380367035863195 22.8997495336907875  7.1983053853423700
 18.0875257720262042 24.8413360792958642  7.0663574036755801
 17.4977379233638075 27.0186670936635842  7.0678761805253982
 19.5466479275604819 27.9190714134570790  7.2378149651349855
  7.6581759880440838  2.9975602227109639  7.3242676605291583
 10.3300420672690443  7.1898219920759265  7.3085246003107356
 11.6118599753216447  9.6855884766680109  7.0257282946291948
 12.9072613651896866 11.9031794794076298  7.2548390819035715
 14.0360760326453029 13.9757043288618448  7.3767342724282576
 15.3569511720677099 16.0577553991608362  7.3117958853001515
 16.5552874373523018 18.4711492802903585  7.1578953328646033
 19.3022196552573497 22.8320340763857494  7.3157727209140209
 20.5009717333130226 25.2521797732417106  7.1211365391836106
 21.6971191563056429 27.5262488872746935  6.9182606546283392
  9.6665117211573879  4.4702829071737105  7.5204417659929739
 11.7659958130740900  5.3298886921293898  7.4533840547017167
 14.1770864845615616  9.6697781628516424  7.2529112372098936
 16.5138748129938513 13.9042483138908981  7.2718282380529518
 17.8369251535317872 16.4186683394210249  7.0309766819293067
 19.2336321603191678 18.6302836175576232  7.2551543397452720
 20.4791745989418779 20.7216421349047621  7.4396495417973529
 22.8442581358913905 24.6647706853482660  7.1647738314361931
 23.7613264755662037 26.6907902444905787  7.0831292479942674
 24.8657607388385351 28.6445942039960144  7.2114840662532860
 13.7558017457539652  6.4139150870146322  7.2770326225341666
 15.6384085240540571  7.6326358100050316  7.2425342104344370
 16.6396220723688799  9.7078406985486314  7.3325271373647638
 17.8699852631341258 11.7539005282403046  7.3218167462417485
 19.0034789797153074 13.9023324404330673  7.0735031363756384
 20.5242484338276867 16.3418007093295437  7.0888287581585017
 22.9167354222651731 20.6886577195210890  7.2476874987206266
 24.2829515487044425 22.9256517568574019  7.0951620714397858
 25.6660258489451394 25.1002857772893790  7.2804207666645864
 26.9391950008420942 27.2915588376293634  7.3944467961106435
 16.4220375350635521  5.2867472622348393  7.1118049757526745
 18.0573044396797364  7.2726955501904058  7.1237834410932415
 19.0885512147434007  9.6828540658458362  7.2689419663700541
 20.5929355985014659 11.8692507320153648  7.2896670654555891
 21.7787295200222815 14.1119648959515516  7.2115880752631432
 22.7799779740990367 16.6728514721802874  7.1786008140780257
 24.3998914235807902 18.4461726387331524  7.1219797657103854
 25.5183850803204173 20.5882969782034060  7.0139331844647534
 27.0843934544579490 22.9076267470399273  7.0813723315413046
 28.1844230441776915 25.1828010161372831  7.4829149880288712
 20.5294038395915877  7.4107611196846221  7.0495014898125605
 21.7400203439944022  9.5533747380806844  7.2199842354535377
 23.0233799736820686 11.8052309833799125  7.3210769980311774
 24.2076590507250060 14.9649050532511509  7.1608299830955744
 25.7632746733779072 16.5159978820640987  7.1469546371485579
 27.0740520391981576 18.5825767966345872  7.2567562787994007
 23.0904569135526607  7.3289136857563832  7.2127567143259901
 25.1516105710819033 12.9406706350921663  7.2660164428976728
