5586
Lattice="72.0230445393609 31.20165036715915 -0.0037704999532207 8.93543067166597 78.15976028105837 0.10800844555150581 -0.0144034806068363 0.0307012113910532 19.75134941302318" Properties=species:S:1:pos:R:3 pbc="T T F"
C        1.32092802       0.54618601      11.16974064
C        1.61253964       7.42562311      11.20530467
C        2.11534813       8.80064971      10.62817768
C        3.46629021       9.27934618      11.16928264
C        3.76147479      10.77182818      10.68258618
C        5.16271904      11.13296206      11.18326723
C        5.41091998      12.65662945      10.79270471
C        6.83612323      12.98183221      11.30128106
C        0.53141830       2.97416103      11.17042268
C        0.80387974       4.42597375      10.57793430
C        2.36514608       4.81625309      10.54000411
C        2.74203893       6.30366594      11.16808951
C        4.09450936       6.76169054      10.51111669
C        4.59903689       8.31322516      10.65841223
C        5.89086756       8.61692860      11.48585432
C        6.32928607       9.97447338      10.79352459
C        7.67733834      10.50152546      11.26262117
C        7.90468081      11.95054608      10.71598123
C        9.38399892      12.37764516      11.21455747
C        9.82998730      13.73602389      10.65428049
C       11.23600961      14.24377192      11.15177075
C       -0.05579784       0.04317814      10.62491886
C        1.60141248       2.00872660      10.69278659
C        3.02125822       2.37185126      11.35662271
C        3.44551463       3.92364283      11.27032641
C        4.88187981       4.35699950      10.62987677
C        5.21800545       5.77463701      11.08736669
C        6.61923720       6.23044429      10.55387821
C        6.99921241       7.45780961      11.47499297
C        8.47810004       8.03320841      11.34664498
C        8.78918708       9.52153015      10.78019781
C       10.20743942       9.96423015      11.22231532
C       10.49256909      11.42706938      10.68114376
C        5.90184654       3.14022188      10.65792807
C        7.35299985       3.59953839      11.04252583
C        7.70445293       4.96917199      10.47547699
C        9.07542355       5.45102231      11.11368436
C        9.37051349       6.91881926      10.69517763
C        1.23403734       9.63804385       8.59122652
C        1.31780132       5.12271996       8.28713869
C        1.21937795       6.72201992       8.25969459
C        2.64689796       7.43332788       8.39105657
C        2.46059439       8.84297002       9.06022437
C        3.82884110       9.56980576       8.61349198
C        3.85538182      11.00612041       9.13053393
C        5.13637111      11.82827027       8.53867058
C        0.01100690      -0.02544194       9.08279729
C        1.34708652       0.64653280       8.60088415
C        1.45686639       2.12374232       9.13194283
C        2.71922049       2.91143529       8.70057660
C        2.60040422       4.53130262       9.00651090
C        3.88342213       5.14854871       8.46679649
C        3.93742768       6.63435488       8.95468471
C        5.22796697       7.38661398       8.52546260
C        5.04409559       8.75925844       9.19914295
C        6.38964123       9.63308100       9.26273168
C        6.48651333      11.02191453       8.53398196
C        7.77675918      11.84859355       9.10968833
C        7.71231302      13.29536223       8.40115886
C        9.06173335      14.12865761       8.37019764
C        4.04381523       2.02652692       9.26102432
C        5.37536945       2.86807383       9.14153753
C        5.10499375       4.41045271       9.02709465
C        6.41150589       5.15739953       8.46707563
C        6.48627759       6.59518304       9.03745396
C        7.79735372       7.30014909       8.53729221
C        7.75779352       8.88204963       8.58207973
C        9.00323816       9.55573796       9.23998430
C        9.03916122      11.05555271       8.68106971
C       10.34849060      11.75713723       9.15681529
C       10.19257907      13.41095187       9.13527784
C        7.74533852       4.54207586       8.93265679
C        9.09521812       5.22548858       8.52693879
C        9.15413399       6.72469566       9.11309995
C       10.44436036       7.38577911       8.60457031
C       10.49059188       8.86634479       9.10844506
F        1.24464549       0.51184164      12.54293729
F        1.41065799       7.66380138      12.54335738
F        3.40333235       9.28533794      12.54413060
F        5.18535652      11.11645769      12.55958844
F        6.86975454      12.98875428      12.67676190
F        0.63058302       3.00935421      12.54432002
F        2.94341966       6.17779243      12.51530109
F        5.67147740       8.77109422      12.82715729
F        7.69253626      10.51103959      12.64478599
F        9.30897582      12.40629497      12.58799153
F       11.21741250      14.31813465      12.52541787
F        2.90134855       2.10701207      12.68953963
F        3.61597999       4.14187198      12.61122013
F        5.20654812       5.82734608      12.45303088
F        7.04281239       6.96191118      12.75310531
F        8.81352714       8.20253072      12.67331814
F       10.38428720      10.03823752      12.58414091
F        7.31738156       3.63211436      12.42594154
F        9.00315696       5.40533791      12.48921936
F        1.28968974       9.64029872       7.21390633
F        1.31305852       4.83193708       6.95076775
F        0.88356866       7.05842136       6.97256096
F        2.99564798       7.59906090       7.06850024
F        3.94848480       9.64943218       7.24229451
F        4.86310545      12.00955143       7.21766210
F        1.32227282       0.64681778       7.22635219
F        2.79259771       2.93275354       7.32651691
F        3.85881020       5.16259953       7.09010774
F        5.40236100       7.49689486       7.16377081
F        6.67363060      10.87285995       7.19317056
F        7.29704752      13.17256757       7.09710407
F        9.30421034      14.23745447       7.03169710
F        6.31335348       5.06831514       7.09417164
F        7.82785814       6.97839935       7.19836567
F        7.83319985       9.10675275       7.23746855
F        9.02723591      11.05242907       7.30861296
F        9.21309658       5.20525067       7.15869247
F       10.42761281       7.33072139       7.23071274
C        2.59741812      11.71186605      11.18517042
C        2.88902973      18.59130315      11.22073445
C        3.39183823      19.96632975      10.64360746
C        4.74278031      20.44502622      11.18471242
C        5.03796489      21.93750822      10.69801596
C        6.43920914      22.29864210      11.19869700
C        6.68741008      23.82230949      10.80813448
C        8.11261332      24.14751225      11.31671084
C        1.80790839      14.13984107      11.18585246
C        2.08036983      15.59165379      10.59336408
C        3.64163618      15.98193313      10.55543389
C        4.01852903      17.46934598      11.18351929
C        5.37099946      17.92737058      10.52654647
C        5.87552698      19.47890520      10.67384200
C        7.16735765      19.78260864      11.50128409
C        7.60577617      21.14015342      10.80895436
C        8.95382844      21.66720550      11.27805095
C        9.18117090      23.11622612      10.73141101
C       10.66048902      23.54332520      11.22998725
C       11.10647740      24.90170393      10.66971027
C       12.51249971      25.40945196      11.16720052
C        1.22069226      11.20885818      10.64034863
C        2.87790257      13.17440664      10.70821637
C        4.29774831      13.53753131      11.37205248
C        4.72200472      15.08932287      11.28575619
C        6.15836990      15.52267954      10.64530655
C        6.49449554      16.94031705      11.10279647
C        7.89572730      17.39612433      10.56930798
C        8.27570251      18.62348965      11.49042275
C        9.75459014      19.19888845      11.36207475
C       10.06567717      20.68721019      10.79562759
C       11.48392952      21.12991019      11.23774510
C       11.76905919      22.59274942      10.69657354
C        7.17833664      14.30590192      10.67335785
C        8.62948994      14.76521843      11.05795561
C        8.98094303      16.13485203      10.49090677
C       10.35191365      16.61670235      11.12911414
C       10.64700359      18.08449930      10.71060741
C        2.51052744      20.80372389       8.60665630
C        2.59429141      16.28840000       8.30256846
C        2.49586805      17.88769996       8.27512437
C        3.92338806      18.59900792       8.40648635
C        3.73708448      20.00865006       9.07565415
C        5.10533119      20.73548580       8.62892176
C        5.13187191      22.17180045       9.14596371
C        6.41286121      22.99395031       8.55410036
C        1.28749699      11.14023810       9.09822707
C        2.62357661      11.81221284       8.61631392
C        2.73335648      13.28942236       9.14737260
C        3.99571059      14.07711533       8.71600638
C        3.87689431      15.69698266       9.02194068
C        5.15991223      16.31422875       8.48222627
C        5.21391778      17.80003492       8.97011449
C        6.50445707      18.55229402       8.54089238
C        6.32058569      19.92493848       9.21457272
C        7.66613133      20.79876104       9.27816146
C        7.76300343      22.18759457       8.54941174
C        9.05324927      23.01427359       9.12511810
C        8.98880311      24.46104227       8.41658864
C       10.33822345      25.29433765       8.38562742
C        5.32030533      13.19220696       9.27645410
C        6.65185954      14.03375387       9.15696730
C        6.38148384      15.57613275       9.04252443
C        7.68799599      16.32307957       8.48250540
C        7.76276768      17.76086308       9.05288374
C        9.07384382      18.46582913       8.55272198
C        9.03428361      20.04772967       8.59750951
C       10.27972825      20.72141800       9.25541408
C       10.31565131      22.22123275       8.69649948
C       11.62498070      22.92281727       9.17224507
C       11.46906917      24.57663191       9.15070762
C        9.02182861      15.70775590       8.94808657
C       10.37170822      16.39116862       8.54236857
C       10.43062408      17.89037570       9.12852973
C       11.72085045      18.55145915       8.62000009
C       11.76708198      20.03202483       9.12387484
F        2.52113559      11.67752168      12.55836707
F        2.68714809      18.82948142      12.55878716
F        4.67982244      20.45101798      12.55956038
F        6.46184662      22.28213773      12.57501822
F        8.14624464      24.15443432      12.69219167
F        1.90707311      14.17503425      12.55974980
F        4.21990976      17.34347247      12.53073087
F        6.94796750      19.93677426      12.84258706
F        8.96902635      21.67671963      12.66021577
F       10.58546592      23.57197501      12.60342130
F       12.49390259      25.48381469      12.54084765
F        4.17783864      13.27269211      12.70496941
F        4.89247008      15.30755202      12.62664991
F        6.48303821      16.99302612      12.46846066
F        8.31930248      18.12759122      12.76853509
F       10.09001724      19.36821076      12.68874792
F       11.66077729      21.20391756      12.59957069
F        8.59387165      14.79779440      12.44137132
F       10.27964705      16.57101795      12.50464913
F        2.56617984      20.80597876       7.22933610
F        2.58954861      15.99761712       6.96619753
F        2.16005876      18.22410140       6.98799074
F        4.27213808      18.76474094       7.08393001
F        5.22497490      20.81511222       7.25772429
F        6.13959554      23.17523147       7.23309188
F        2.59876291      11.81249782       7.24178197
F        4.06908781      14.09843359       7.34194669
F        5.13530030      16.32827957       7.10553752
F        6.67885110      18.66257490       7.17920059
F        7.95012070      22.03853999       7.20860034
F        8.57353762      24.33824761       7.11253385
F       10.58070044      25.40313451       7.04712688
F        7.58984358      16.23399518       7.10960142
F        9.10434823      18.14407939       7.21379545
F        9.10968995      20.27243279       7.25289833
F       10.30372600      22.21810911       7.32404274
F       10.48958668      16.37093071       7.17412225
F       11.70410291      18.49640143       7.24614251
C        3.87390821      22.87754609      11.20060020
C        4.16551983      29.75698319      11.23616423
C        4.66832833      31.13200979      10.65903724
C        6.01927041      31.61070626      11.20014220
C        6.31445498      33.10318826      10.71344574
C        7.71569923      33.46432214      11.21412678
C        7.96390017      34.98798953      10.82356426
C        9.38910342      35.31319229      11.33214061
C        3.08439849      25.30552111      11.20128223
C        3.35685993      26.75733383      10.60879386
C        4.91812627      27.14761317      10.57086367
C        5.29501912      28.63502602      11.19894906
C        6.64748955      29.09305062      10.54197624
C        7.15201708      30.64458524      10.68927178
C        8.44384775      30.94828868      11.51671387
C        8.88226626      32.30583346      10.82438414
C       10.23031854      32.83288554      11.29348073
C       10.45766100      34.28190616      10.74684079
C       11.93697911      34.70900524      11.24541703
C       12.38296750      36.06738397      10.68514005
C       13.78898981      36.57513200      11.18263030
C        2.49718236      22.37453822      10.65577841
C        4.15439267      24.34008668      10.72364615
C        5.57423841      24.70321135      11.38748226
C        5.99849482      26.25500291      11.30118597
C        7.43486000      26.68835958      10.66073633
C        7.77098564      28.10599709      11.11822625
C        9.17221739      28.56180437      10.58473776
C        9.55219260      29.78916969      11.50585253
C       11.03108023      30.36456849      11.37750453
C       11.34216727      31.85289023      10.81105736
C       12.76041962      32.29559023      11.25317488
C       13.04554928      33.75842946      10.71200332
C        8.45482673      25.47158196      10.68878762
C        9.90598004      25.93089847      11.07338539
C       10.25743312      27.30053207      10.50633655
C       11.62840374      27.78238239      11.14454392
C       11.92349369      29.25017934      10.72603719
C        3.78701753      31.96940393       8.62208608
C        3.87078151      27.45408004       8.31799824
C        3.77235814      29.05338000       8.29055414
C        5.19987815      29.76468796       8.42191613
C        5.01357458      31.17433010       9.09108393
C        6.38182129      31.90116584       8.64435154
C        6.40836201      33.33748049       9.16139348
C        7.68935131      34.15963035       8.56953014
C        2.56398709      22.30591814       9.11365685
C        3.90006671      22.97789288       8.63174370
C        4.00984658      24.45510240       9.16280238
C        5.27220068      25.24279537       8.73143616
C        5.15338441      26.86266270       9.03737046
C        6.43640232      27.47990879       8.49765605
C        6.49040787      28.96571496       8.98554427
C        7.78094716      29.71797406       8.55632216
C        7.59707578      31.09061852       9.23000250
C        8.94262142      31.96444108       9.29359124
C        9.03949352      33.35327461       8.56484152
C       10.32973937      34.17995363       9.14054788
C       10.26529321      35.62672231       8.43201842
C       11.61471354      36.46001769       8.40105720
C        6.59679542      24.35788700       9.29188388
C        7.92834964      25.19943391       9.17239708
C        7.65797394      26.74181279       9.05795421
C        8.96448608      27.48875961       8.49793518
C        9.03925778      28.92654312       9.06831352
C       10.35033391      29.63150917       8.56815176
C       10.31077371      31.21340971       8.61293929
C       11.55621835      31.88709804       9.27084386
C       11.59214141      33.38691279       8.71192926
C       12.90147079      34.08849731       9.18767484
C       12.74555926      35.74231195       9.16613740
C       10.29831871      26.87343594       8.96351635
C       11.64819831      27.55684866       8.55779834
C       11.70711418      29.05605574       9.14395951
C       12.99734055      29.71713919       8.63542987
C       13.04357207      31.19770487       9.13930461
F        3.79762568      22.84320172      12.57379685
F        3.96363818      29.99516147      12.57421694
F        5.95631254      31.61669802      12.57499016
F        7.73833672      33.44781777      12.59044800
F        9.42273473      35.32011436      12.70762145
F        3.18356321      25.34071429      12.57517958
F        5.49639985      28.50915251      12.54616064
F        8.22445759      31.10245430      12.85801684
F       10.24551645      32.84239967      12.67564554
F       11.86195601      34.73765505      12.61885108
F       13.77039269      36.64949473      12.55627742
F        5.45432874      24.43837215      12.72039919
F        6.16896018      26.47323206      12.64207969
F        7.75952831      28.15870616      12.48389044
F        9.59579258      29.29327126      12.78396487
F       11.36650733      30.53389080      12.70417770
F       12.93726739      32.36959760      12.61500047
F        9.87036175      25.96347444      12.45680110
F       11.55613715      27.73669799      12.52007891
F        3.84266993      31.97165880       7.24476588
F        3.86603871      27.16329716       6.98162731
F        3.43654886      29.38978144       7.00342051
F        5.54862817      29.93042098       7.09935979
F        6.50146499      31.98079226       7.27315407
F        7.41608564      34.34091151       7.24852165
F        3.87525301      22.97817786       7.25721174
F        5.34557790      25.26411363       7.35737647
F        6.41179039      27.49395961       7.12096730
F        7.95534119      29.82825494       7.19463036
F        9.22661079      33.20422003       7.22403012
F        9.85002771      35.50392765       7.12796363
F       11.85719054      36.56881455       7.06255666
F        8.86633367      27.39967522       7.12503120
F       10.38083833      29.30975943       7.22922523
F       10.38618005      31.43811283       7.26832811
F       11.58021610      33.38378915       7.33947252
F       11.76607677      27.53661075       7.18955203
F       12.98059300      29.66208147       7.26157229
C        5.15039831      34.04322613      11.21602998
C        5.44200992      40.92266323      11.25159401
C        5.94481842      42.29768983      10.67446702
C        7.29576050      42.77638630      11.21557197
C        7.59094508      44.26886830      10.72887551
C        8.99218933      44.63000218      11.22955656
C        9.24039027      46.15366957      10.83899404
C       10.66559351      46.47887233      11.34757039
C        4.36088858      36.47120115      11.21671201
C        4.63335002      37.92301387      10.62422363
C        6.19461637      38.31329321      10.58629345
C        6.57150922      39.80070606      11.21437884
C        7.92397965      40.25873066      10.55740602
C        8.42850717      41.81026528      10.70470156
C        9.72033785      42.11396872      11.53214365
C       10.15875636      43.47151350      10.83981392
C       11.50680863      43.99856558      11.30891051
C       11.73415109      45.44758620      10.76227056
C       13.21346921      45.87468528      11.26084680
C       13.65945759      47.23306401      10.70056982
C       15.06547990      47.74081204      11.19806008
C        3.77367245      33.54021826      10.67120819
C        5.43088277      35.50576672      10.73907593
C        6.85072851      35.86889139      11.40291204
C        7.27498491      37.42068295      11.31661574
C        8.71135009      37.85403962      10.67616611
C        9.04747573      39.27167713      11.13365603
C       10.44870749      39.72748441      10.60016754
C       10.82868270      40.95484973      11.52128230
C       12.30757033      41.53024853      11.39293431
C       12.61865737      43.01857027      10.82648714
C       14.03690971      43.46127027      11.26860466
C       14.32203938      44.92410950      10.72743309
C        9.73131683      36.63726200      10.70421740
C       11.18247014      37.09657851      11.08881517
C       11.53392322      38.46621211      10.52176633
C       12.90489384      38.94806243      11.15997370
C       13.19998378      40.41585938      10.74146696
C        5.06350763      43.13508397       8.63751586
C        5.14727160      38.61976008       8.33342802
C        5.04884824      40.21906004       8.30598392
C        6.47636825      40.93036800       8.43734590
C        6.29006468      42.34001014       9.10651370
C        7.65831139      43.06684588       8.65978131
C        7.68485210      44.50316053       9.17682326
C        8.96584140      45.32531039       8.58495992
C        3.84047719      33.47159818       9.12908662
C        5.17655680      34.14357292       8.64717348
C        5.28633668      35.62078244       9.17823216
C        6.54869078      36.40847542       8.74686593
C        6.42987450      38.02834274       9.05280023
C        7.71289242      38.64558883       8.51308582
C        7.76689797      40.13139500       9.00097404
C        9.05743726      40.88365410       8.57175194
C        8.87356588      42.25629856       9.24543228
C       10.21911152      43.13012112       9.30902101
C       10.31598362      44.51895465       8.58027129
C       11.60622947      45.34563367       9.15597766
C       11.54178330      46.79240235       8.44744820
C       12.89120364      47.62569773       8.41648698
C        7.87328552      35.52356704       9.30731366
C        9.20483974      36.36511395       9.18782686
C        8.93446403      37.90749284       9.07338399
C       10.24097618      38.65443965       8.51336496
C       10.31574787      40.09222316       9.08374330
C       11.62682401      40.79718921       8.58358154
C       11.58726380      42.37908975       8.62836906
C       12.83270844      43.05277808       9.28627364
C       12.86863150      44.55259283       8.72735904
C       14.17796089      45.25417735       9.20310462
C       14.02204936      46.90799199       9.18156717
C       11.57480881      38.03911598       8.97894612
C       12.92468841      38.72252870       8.57322812
C       12.98360428      40.22173578       9.15938928
C       14.27383065      40.88281923       8.65085965
C       14.32006217      42.36338491       9.15473439
F        5.07411578      34.00888176      12.58922662
F        5.24012828      41.16084151      12.58964672
F        7.23280264      42.78237806      12.59041993
F        9.01482681      44.61349781      12.60587778
F       10.69922483      46.48579440      12.72305123
F        4.46005330      36.50639433      12.59060936
F        6.77288995      39.67483255      12.56159042
F        9.50094769      42.26813434      12.87344662
F       11.52200654      44.00807971      12.69107532
F       13.13844611      45.90333509      12.63428086
F       15.04688279      47.81517477      12.57170720
F        6.73081884      35.60405219      12.73582896
F        7.44545027      37.63891210      12.65750946
F        9.03601841      39.32438620      12.49932021
F       10.87228268      40.45895130      12.79939464
F       12.64299743      41.69957084      12.71960747
F       14.21375748      43.53527764      12.63043025
F       11.14685185      37.12915448      12.47223088
F       12.83262724      38.90237803      12.53550869
F        5.11916003      43.13733884       7.26019566
F        5.14252880      38.32897720       6.99705708
F        4.71303895      40.55546148       7.01885029
F        6.82511827      41.09610102       7.11478957
F        7.77795509      43.14647230       7.28858385
F        8.69257574      45.50659155       7.26395143
F        5.15174311      34.14385790       7.27264152
F        6.62206800      36.42979367       7.37280624
F        7.68828049      38.65963965       7.13639707
F        9.23183129      40.99393498       7.21006014
F       10.50310089      44.36990007       7.23945990
F       11.12651781      46.66960769       7.14339340
F       13.13368063      47.73449459       7.07798644
F       10.14282377      38.56535526       7.14046098
F       11.65732843      40.47543947       7.24465501
F       11.66267014      42.60379287       7.28375789
F       12.85670619      44.54946919       7.35490230
F       13.04256687      38.70229079       7.20498180
F       14.25708310      40.82776151       7.27700207
C        6.42688840      45.20890617      11.23145975
C        6.71850002      52.08834327      11.26702378
C        7.22130852      53.46336987      10.68989679
C        8.57225060      53.94206634      11.23100175
C        8.86743518      55.43454834      10.74430529
C       10.26867943      55.79568222      11.24498634
C       10.51688037      57.31934961      10.85442382
C       11.94208361      57.64455237      11.36300017
C        5.63737868      47.63688119      11.23214179
C        5.90984012      49.08869391      10.63965341
C        7.47110647      49.47897325      10.60172323
C        7.84799932      50.96638610      11.22980862
C        9.20046975      51.42441070      10.57283580
C        9.70499727      52.97594532      10.72013134
C       10.99682794      53.27964876      11.54757343
C       11.43524645      54.63719354      10.85524370
C       12.78329873      55.16424562      11.32434029
C       13.01064119      56.61326624      10.77770034
C       14.48995931      57.04036532      11.27627658
C       14.93594769      58.39874405      10.71599960
C       16.34197000      58.90649208      11.21348986
C        5.05016255      44.70589830      10.68663797
C        6.70737286      46.67144676      10.75450570
C        8.12721860      47.03457143      11.41834182
C        8.55147501      48.58636299      11.33204552
C        9.98784019      49.01971966      10.69159588
C       10.32396583      50.43735717      11.14908581
C       11.72519758      50.89316445      10.61559732
C       12.10517280      52.12052977      11.53671208
C       13.58406043      52.69592857      11.40836409
C       13.89514746      54.18425031      10.84191692
C       15.31339981      54.62695031      11.28403444
C       15.59852947      56.08978954      10.74286287
C       11.00780693      47.80294204      10.71964718
C       12.45896023      48.26225855      11.10424495
C       12.81041332      49.63189215      10.53719611
C       14.18138394      50.11374247      11.17540347
C       14.47647388      51.58153942      10.75689674
C        6.33999772      54.30076401       8.65294563
C        6.42376170      49.78544012       8.34885780
C        6.32533833      51.38474008       8.32141370
C        7.75285835      52.09604804       8.45277568
C        7.56655477      53.50569018       9.12194348
C        8.93480148      54.23252592       8.67521109
C        8.96134220      55.66884057       9.19225304
C       10.24233150      56.49099043       8.60038969
C        5.11696728      44.63727822       9.14451640
C        6.45304690      45.30925296       8.66260326
C        6.56282677      46.78646248       9.19366194
C        7.82518088      47.57415546       8.76229571
C        7.70636460      49.19402278       9.06823001
C        8.98938251      49.81126887       8.52851560
C        9.04338807      51.29707504       9.01640382
C       10.33392735      52.04933414       8.58718171
C       10.15005597      53.42197860       9.26086206
C       11.49560161      54.29580116       9.32445079
C       11.59247372      55.68463469       8.59570107
C       12.88271956      56.51131371       9.17140744
C       12.81827340      57.95808239       8.46287798
C       14.16769373      58.79137777       8.43191675
C        9.14977562      46.68924708       9.32274343
C       10.48132983      47.53079399       9.20325664
C       10.21095413      49.07317288       9.08881376
C       11.51746627      49.82011969       8.52879474
C       11.59223797      51.25790320       9.09917307
C       12.90331411      51.96286925       8.59901132
C       12.86375390      53.54476979       8.64379884
C       14.10919854      54.21845812       9.30170342
C       14.14512160      55.71827287       8.74278882
C       15.45445098      56.41985739       9.21853440
C       15.29853945      58.07367203       9.19699695
C       12.85129890      49.20479602       8.99437590
C       14.20117851      49.88820874       8.58865790
C       14.26009437      51.38741582       9.17481906
C       15.55032074      52.04849927       8.66628943
C       15.59655226      53.52906495       9.17016417
F        6.35060587      45.17456180      12.60465640
F        6.51661838      52.32652155      12.60507650
F        8.50929273      53.94805810      12.60584971
F       10.29131691      55.77917785      12.62130755
F       11.97571493      57.65147444      12.73848101
F        5.73654340      47.67207437      12.60603913
F        8.04938005      50.84051259      12.57702020
F       10.77743779      53.43381438      12.88887640
F       12.79849664      55.17375975      12.70650510
F       14.41493620      57.06901513      12.64971064
F       16.32337288      58.98085481      12.58713698
F        8.00730893      46.76973223      12.75125874
F        8.72194037      48.80459214      12.67293924
F       10.31250850      50.49006624      12.51474999
F       12.14877277      51.62463134      12.81482442
F       13.91948753      52.86525088      12.73503725
F       15.49024758      54.70095768      12.64586002
F       12.42334194      48.29483452      12.48766065
F       14.10911734      50.06805807      12.55093847
F        6.39565013      54.30301888       7.27562544
F        6.41901890      49.49465724       7.01248686
F        5.98952905      51.72114152       7.03428007
F        8.10160836      52.26178106       7.13021935
F        9.05444519      54.31215234       7.30401363
F        9.96906583      56.67227159       7.27938121
F        6.42823320      45.30953794       7.28807130
F        7.89855810      47.59547371       7.38823602
F        8.96477059      49.82531969       7.15182685
F       10.50832138      52.15961502       7.22548992
F       11.77959099      55.53558011       7.25488967
F       12.40300791      57.83528773       7.15882318
F       14.41017073      58.90017463       7.09341622
F       11.41931387      49.73103530       7.15589075
F       12.93381852      51.64111951       7.26008478
F       12.93916024      53.76947291       7.29918766
F       14.13319629      55.71514923       7.37033207
F       14.31905697      49.86797084       7.22041158
F       15.53357319      51.99344155       7.29243185
C        7.70337850      56.37458621      11.24688953
C        7.99499012      63.25402331      11.28245356
C        8.49779861      64.62904991      10.70532657
C        9.84874069      65.10774638      11.24643153
C       10.14392527      66.60022839      10.75973507
C       11.54516952      66.96136226      11.26041612
C       11.79337046      68.48502965      10.86985360
C       13.21857371      68.81023241      11.37842995
C        6.91386878      58.80256123      11.24757157
C        7.18633022      60.25437395      10.65508319
C        8.74759656      60.64465329      10.61715300
C        9.12448941      62.13206614      11.24523840
C       10.47695984      62.59009074      10.58826558
C       10.98148737      64.14162536      10.73556112
C       12.27331804      64.44532880      11.56300321
C       12.71173655      65.80287358      10.87067348
C       14.05978882      66.32992566      11.33977006
C       14.28713128      67.77894628      10.79313012
C       15.76644940      68.20604536      11.29170636
C       16.21243778      69.56442409      10.73142938
C       17.61846009      70.07217213      11.22891964
C        6.32665264      55.87157834      10.70206774
C        7.98386296      57.83712680      10.76993548
C        9.40370870      58.20025147      11.43377160
C        9.82796511      59.75204303      11.34747530
C       11.26433029      60.18539970      10.70702566
C       11.60045593      61.60303721      11.16451558
C       13.00168768      62.05884450      10.63102709
C       13.38166289      63.28620982      11.55214186
C       14.86055052      63.86160861      11.42379387
C       15.17163756      65.34993035      10.85734670
C       16.58988990      65.79263035      11.29946421
C       16.87501957      67.25546958      10.75829265
C       12.28429702      58.96862208      10.73507696
C       13.73545033      59.42793859      11.11967472
C       14.08690341      60.79757219      10.55262588
C       15.45787403      61.27942251      11.19083325
C       15.75296397      62.74721946      10.77232652
C        7.61648782      65.46644405       8.66837541
C        7.70025180      60.95112016       8.36428758
C        7.60182843      62.55042012       8.33684348
C        9.02934844      63.26172808       8.46820546
C        8.84304487      64.67137022       9.13737326
C       10.21129158      65.39820596       8.69064087
C       10.23783230      66.83452061       9.20768282
C       11.51882159      67.65667047       8.61581947
C        6.39345738      55.80295826       9.15994618
C        7.72953700      56.47493300       8.67803304
C        7.83931687      57.95214252       9.20909172
C        9.10167097      58.73983550       8.77772549
C        8.98285470      60.35970282       9.08365979
C       10.26587261      60.97694891       8.54394538
C       10.31987816      62.46275508       9.03183360
C       11.61041745      63.21501418       8.60261149
C       11.42654607      64.58765864       9.27629184
C       12.77209171      65.46148120       9.33988057
C       12.86896381      66.85031473       8.61113085
C       14.15920966      67.67699375       9.18683722
C       14.09476350      69.12376243       8.47830775
C       15.44418383      69.95705781       8.44734653
C       10.42626571      57.85492712       9.33817321
C       11.75781993      58.69647403       9.21868641
C       11.48744423      60.23885292       9.10424354
C       12.79395637      60.98579973       8.54422452
C       12.86872807      62.42358324       9.11460285
C       14.17980420      63.12854929       8.61444110
C       14.14024400      64.71044983       8.65922862
C       15.38568864      65.38413816       9.31713319
C       15.42161170      66.88395291       8.75821860
C       16.73094108      67.58553743       9.23396418
C       16.57502955      69.23935207       9.21242673
C       14.12778900      60.37047606       9.00980568
C       15.47766860      61.05388878       8.60408768
C       15.53658447      62.55309586       9.19024884
C       16.82681084      63.21417931       8.68171920
C       16.87304236      64.69474499       9.18559395
F        7.62709597      56.34024184      12.62008618
F        7.79310847      63.49220159      12.62050627
F        9.78578283      65.11373814      12.62127949
F       11.56780700      66.94485789      12.63673733
F       13.25220502      68.81715448      12.75391079
F        7.01303350      58.83775441      12.62146891
F        9.32587014      62.00619263      12.59244998
F       12.05392788      64.59949442      12.90430618
F       14.07498674      66.33943979      12.72193488
F       15.69142630      68.23469517      12.66514042
F       17.59986298      70.14653485      12.60256676
F        9.28379903      57.93541227      12.76668852
F        9.99843047      59.97027218      12.68836902
F       11.58899860      61.65574628      12.53017977
F       13.42526287      62.79031138      12.83025420
F       15.19597762      64.03093092      12.75046703
F       16.76673768      65.86663772      12.66128980
F       13.69983204      59.46051456      12.50309043
F       15.38560744      61.23373811      12.56636824
F        7.67214022      65.46869892       7.29105522
F        7.69550900      60.66033728       7.02791664
F        7.26601914      62.88682156       7.04970985
F        9.37809846      63.42746110       7.14564912
F       10.33093528      65.47783238       7.31944340
F       11.24555593      67.83795163       7.29481099
F        7.70472330      56.47521798       7.30350108
F        9.17504819      58.76115375       7.40366580
F       10.24126068      60.99099973       7.16725663
F       11.78481148      63.32529506       7.24091970
F       13.05608108      66.70126015       7.27031945
F       13.67949800      69.00096777       7.17425296
F       15.68666082      70.06585467       7.10884599
F       12.69580396      60.89671535       7.17132053
F       14.21030862      62.80679955       7.27551456
F       14.21565033      64.93515295       7.31461744
F       15.40968639      66.88082927       7.38576185
F       15.59554706      61.03365088       7.23584136
F       16.81006329      63.15912159       7.30786163
C        8.97986859      67.54026625      11.26231931
C        9.27148021      74.41970335      11.29788334
C        9.77428871      75.79472995      10.72075635
C       11.12523079      76.27342642      11.26186131
C       11.42041537      77.76590843      10.77516485
C       12.82165962      78.12704230      11.27584589
C       13.06986056      79.65070969      10.88528337
C       14.49506380      79.97591245      11.39385972
C        8.19035887      69.96824127      11.26300135
C        8.46282031      71.42005399      10.67051297
C       10.02408666      71.81033333      10.63258278
C       10.40097951      73.29774618      11.26066818
C       11.75344994      73.75577078      10.60369536
C       12.25797746      75.30730540      10.75099089
C       13.54980813      75.61100884      11.57843298
C       13.98822665      76.96855362      10.88610325
C       15.33627892      77.49560570      11.35519984
C       15.56362138      78.94462632      10.80855990
C       17.04293950      79.37172540      11.30713614
C       17.48892788      80.73010413      10.74685916
C       18.89495019      81.23785217      11.24434941
C        7.60314274      67.03725838      10.71749752
C        9.26035305      69.00280684      10.78536526
C       10.68019879      69.36593151      11.44920137
C       11.10445520      70.91772307      11.36290508
C       12.54082038      71.35107974      10.72245544
C       12.87694602      72.76871725      11.17994536
C       14.27817778      73.22452454      10.64645687
C       14.65815299      74.45188986      11.56757164
C       16.13704062      75.02728865      11.43922364
C       16.44812765      76.51561039      10.87277648
C       17.86638000      76.95831039      11.31489399
C       18.15150967      78.42114962      10.77372243
C       13.56078712      70.13430212      10.75050674
C       15.01194042      70.59361863      11.13510450
C       15.36339351      71.96325223      10.56805566
C       16.73436413      72.44510255      11.20626303
C       17.02945407      73.91289950      10.78775630
C        8.89297791      76.63212409       8.68380519
C        8.97674189      72.11680020       8.37971735
C        8.87831853      73.71610016       8.35227325
C       10.30583854      74.42740812       8.48363524
C       10.11953496      75.83705026       9.15280304
C       11.48778167      76.56388600       8.70607065
C       11.51432239      78.00020065       9.22311259
C       12.79531169      78.82235051       8.63124925
C        7.66994747      66.96863830       9.17537596
C        9.00602709      67.64061304       8.69346281
C        9.11580696      69.11782256       9.22452149
C       10.37816107      69.90551554       8.79315527
C       10.25934479      71.52538286       9.09908957
C       11.54236271      72.14262895       8.55937516
C       11.59636826      73.62843512       9.04726338
C       12.88690755      74.38069422       8.61804127
C       12.70303617      75.75333868       9.29172161
C       14.04858181      76.62716124       9.35531035
C       14.14545391      78.01599477       8.62656063
C       15.43569975      78.84267379       9.20226699
C       15.37125359      80.28944247       8.49373753
C       16.72067393      81.12273785       8.46277631
C       11.70275581      69.02060716       9.35360299
C       13.03431002      69.86215407       9.23411619
C       12.76393432      71.40453296       9.11967332
C       14.07044647      72.15147977       8.55965429
C       14.14521816      73.58926328       9.13003263
C       15.45629430      74.29422933       8.62987087
C       15.41673409      75.87612987       8.67465840
C       16.66217873      76.54981820       9.33256297
C       16.69810179      78.04963295       8.77364837
C       18.00743118      78.75121747       9.24939396
C       17.85151965      80.40503211       9.22785651
C       15.40427909      71.53615610       9.02523546
C       16.75415870      72.21956882       8.61951746
C       16.81307456      73.71877590       9.20567862
C       18.10330093      74.37985935       8.69714898
C       18.14953246      75.86042503       9.20102372
F        8.90358607      67.50592189      12.63551596
F        9.06959857      74.65788163      12.63593605
F       11.06227292      76.27941818      12.63670927
F       12.84429710      78.11053793      12.65216711
F       14.52869512      79.98283452      12.76934056
F        8.28952359      70.00343445      12.63689869
F       10.60236024      73.17187267      12.60787976
F       13.33041798      75.76517446      12.91973595
F       15.35147683      77.50511983      12.73736465
F       16.96791640      79.40037521      12.68057019
F       18.87635307      81.31221489      12.61799654
F       10.56028912      69.10109231      12.78211830
F       11.27492056      71.13595222      12.70379880
F       12.86548869      72.82142632      12.54560955
F       14.70175296      73.95599142      12.84568398
F       16.47246772      75.19661096      12.76589681
F       18.04322777      77.03231776      12.67671958
F       14.97632213      70.62619460      12.51852021
F       16.66209753      72.39941815      12.58179802
F        8.94863032      76.63437896       7.30648499
F        8.97199909      71.82601732       7.04334642
F        8.54250924      74.05250160       7.06513963
F       10.65458856      74.59314115       7.16107890
F       11.60742538      76.64351242       7.33487318
F       12.52204602      79.00363167       7.31024077
F        8.98121339      67.64089802       7.31893085
F       10.45153829      69.92683379       7.41909558
F       11.51775078      72.15667977       7.18268641
F       13.06130158      74.49097510       7.25634948
F       14.33257118      77.86694019       7.28574923
F       14.95598810      80.16664781       7.18968274
F       16.96315092      81.23153471       7.12427577
F       13.97229406      72.06239539       7.18675031
F       15.48679871      73.97247959       7.29094434
F       15.49214043      76.10083299       7.33004722
F       16.68617648      78.04650931       7.40119163
F       16.87203716      72.19933092       7.25127114
F       18.08655339      74.32480163       7.32329140
C       11.60993438       5.00356464      11.16920200
C       11.90154600      11.88300173      11.20476603
C       12.40435450      13.25802833      10.62763904
C       13.75529658      13.73672480      11.16874400
C       14.05048115      15.22920681      10.68204754
C       15.45172540      15.59034068      11.18272858
C       15.69992635      17.11400807      10.79216606
C       17.12512959      17.43921084      11.30074241
C       10.82042466       7.43153965      11.16988404
C       11.09288610       8.88335237      10.57739566
C       12.65415244       9.27363171      10.53946547
C       13.03104530      10.76104456      11.16755087
C       14.38351572      11.21906916      10.51057805
C       14.88804325      12.77060378      10.65787358
C       16.17987392      13.07430722      11.48531567
C       16.61829243      14.43185201      10.79298594
C       17.96634471      14.95890409      11.26208253
C       18.19368717      16.40792471      10.71544259
C       19.67300529      16.83502378      11.21401883
C       20.11899367      18.19340251      10.65374185
C       21.52501598      18.70115055      11.15123210
C       10.23320853       4.50055677      10.62438021
C       11.89041884       6.46610522      10.69224795
C       13.31026458       6.82922989      11.35608406
C       13.73452099       8.38102145      11.26978777
C       15.17088617       8.81437813      10.62933813
C       15.50701181      10.23201563      11.08682805
C       16.90824356      10.68782292      10.55333956
C       17.28821877      11.91518824      11.47445433
C       18.76710641      12.49058704      11.34610633
C       19.07819344      13.97890877      10.77965917
C       20.49644579      14.42160877      11.22177668
C       20.78157545      15.88444800      10.68060512
C       16.19085291       7.59760050      10.65738943
C       17.64200621       8.05691702      11.04198719
C       17.99345930       9.42655061      10.47493835
C       19.36442992       9.90840094      11.11314572
C       19.65951986      11.37619788      10.69463899
C       11.52304370      14.09542247       8.59068788
C       11.60680768       9.58009859       8.28660004
C       11.50838431      11.17939854       8.25915594
C       12.93590433      11.89070651       8.39051793
C       12.74960075      13.30034864       9.05968573
C       14.11784746      14.02718438       8.61295334
C       14.14438818      15.46349903       9.12999528
C       15.42537748      16.28564889       8.53813194
C       10.30001326       4.43193669       9.08225865
C       11.63609288       5.10391142       8.60034550
C       11.74587275       6.58112094       9.13140418
C       13.00822685       7.36881392       8.70003796
C       12.88941058       8.98868124       9.00597226
C       14.17242849       9.60592733       8.46625785
C       14.22643405      11.09173350       8.95414607
C       15.51697333      11.84399260       8.52492396
C       15.33310195      13.21663706       9.19860430
C       16.67864759      14.09045962       9.26219304
C       16.77551969      15.47929315       8.53344332
C       18.06576554      16.30597217       9.10914968
C       18.00131938      17.75274085       8.40062022
C       19.35073971      18.58603623       8.36965900
C       14.33282159       6.48390555       9.26048568
C       15.66437581       7.32545246       9.14099888
C       15.39400011       8.86783134       9.02655601
C       16.70051225       9.61477815       8.46653698
C       16.77528395      11.05256166       9.03691532
C       18.08636009      11.75752771       8.53675356
C       18.04679988      13.33942826       8.58154109
C       19.29224452      14.01311659       9.23944566
C       19.32816758      15.51293133       8.68053106
C       20.63749696      16.21451585       9.15627665
C       20.48158543      17.86833049       9.13473920
C       18.03434488       8.99945449       8.93211815
C       19.38422448       9.68286721       8.52640015
C       19.44314035      11.18207428       9.11256131
C       20.73336672      11.84315773       8.60403167
C       20.77959824      13.32372341       9.10790641
F       11.53365185       4.96922027      12.54239865
F       11.69966435      12.12118001      12.54281874
F       13.69233871      13.74271656      12.54359196
F       15.47436289      15.57383631      12.55904980
F       17.15876090      17.44613290      12.67622325
F       10.91958938       7.46673283      12.54378138
F       13.23242603      10.63517105      12.51476245
F       15.96048376      13.22847284      12.82661864
F       17.98154262      14.96841821      12.64424734
F       19.59798218      16.86367360      12.58745288
F       21.50641886      18.77551327      12.52487923
F       13.19035491       6.56439069      12.68900099
F       13.90498635       8.59925061      12.61068149
F       15.49555448      10.28472471      12.45249224
F       17.33181875      11.41928980      12.75256667
F       19.10253351      12.65990934      12.67277950
F       20.67329356      14.49561614      12.58360227
F       17.60638792       8.08949298      12.42540290
F       19.29216332       9.86271654      12.48868071
F       11.57869611      14.09767734       7.21336768
F       11.60206488       9.28931571       6.95022911
F       11.17257503      11.51579998       6.97202232
F       13.28465434      12.05643953       7.06796159
F       14.23749116      14.10681081       7.24175587
F       15.15211181      16.46693006       7.21712345
F       11.61127918       5.10419640       7.22581354
F       13.08160408       7.39013217       7.32597827
F       14.14781657       9.61997815       7.08956910
F       15.69136736      11.95427349       7.16323217
F       16.96263696      15.33023857       7.19263192
F       17.58605388      17.62994620       7.09656543
F       19.59321671      18.69483310       7.03115846
F       16.60235984       9.52569377       7.09363300
F       18.11686450      11.43577797       7.19782703
F       18.12220622      13.56413137       7.23692991
F       19.31624227      15.50980769       7.30807432
F       19.50210294       9.66262930       7.15815383
F       20.71661917      11.78810002       7.23017409
C       12.88642448      16.16924468      11.18463178
C       13.17803610      23.04868177      11.22019581
C       13.68084459      24.42370837      10.64306882
C       15.03178667      24.90240484      11.18417378
C       15.32697125      26.39488685      10.69747732
C       16.72821550      26.75602072      11.19815836
C       16.97641644      28.27968811      10.80759584
C       18.40161968      28.60489088      11.31617219
C       12.09691475      18.59721969      11.18531381
C       12.36937619      20.04903241      10.59282544
C       13.93064254      20.43931175      10.55489525
C       14.30753539      21.92672460      11.18298064
C       15.66000582      22.38474920      10.52600782
C       16.16453335      23.93628382      10.67330336
C       17.45636402      24.23998726      11.50074545
C       17.89478253      25.59753205      10.80841572
C       19.24283480      26.12458413      11.27751231
C       19.47017726      27.57360475      10.73087236
C       20.94949538      28.00070382      11.22944861
C       21.39548376      29.35908255      10.66917163
C       22.80150607      29.86683059      11.16666188
C       11.50969862      15.66623681      10.63980999
C       13.16690894      17.63178526      10.70767773
C       14.58675468      17.99490993      11.37151384
C       15.01101109      19.54670149      11.28521755
C       16.44737627      19.98005817      10.64476791
C       16.78350191      21.39769567      11.10225783
C       18.18473366      21.85350296      10.56876934
C       18.56470887      23.08086828      11.48988410
C       20.04359650      23.65626708      11.36153611
C       20.35468354      25.14458881      10.79508894
C       21.77293588      25.58728881      11.23720646
C       22.05806555      27.05012804      10.69603490
C       17.46734300      18.76328054      10.67281920
C       18.91849631      19.22259706      11.05741697
C       19.26994939      20.59223065      10.49036813
C       20.64092001      21.07408098      11.12857550
C       20.93600995      22.54187792      10.71006877
C       12.79953380      25.26110251       8.60611766
C       12.88329777      20.74577863       8.30202982
C       12.78487441      22.34507858       8.27458572
C       14.21239442      23.05638655       8.40594771
C       14.02609085      24.46602868       9.07511551
C       15.39433756      25.19286442       8.62838312
C       15.42087827      26.62917907       9.14542506
C       16.70186757      27.45132893       8.55356172
C       11.57650336      15.59761673       9.09768843
C       12.91258298      16.26959146       8.61577528
C       13.02236285      17.74680098       9.14683396
C       14.28471695      18.53449396       8.71546773
C       14.16590067      20.15436128       9.02140203
C       15.44891859      20.77160737       8.48168763
C       15.50292414      22.25741354       8.96957584
C       16.79346343      23.00967264       8.54035374
C       16.60959205      24.38231710       9.21403408
C       17.95513769      25.25613966       9.27762282
C       18.05200979      26.64497319       8.54887309
C       19.34225564      27.47165221       9.12457946
C       19.27780948      28.91842089       8.41605000
C       20.62722981      29.75171627       8.38508878
C       15.60931169      17.64958559       9.27591546
C       16.94086591      18.49113250       9.15642866
C       16.67049021      20.03351138       9.04198579
C       17.97700235      20.78045819       8.48196676
C       18.05177404      22.21824170       9.05234510
C       19.36285018      22.92320775       8.55218334
C       19.32328997      24.50510830       8.59697086
C       20.56873462      25.17879663       9.25487544
C       20.60465768      26.67861137       8.69596084
C       21.91398706      27.38019589       9.17170642
C       21.75807553      29.03401054       9.15016897
C       19.31083498      20.16513453       8.94754792
C       20.66071458      20.84854725       8.54182992
C       20.71963045      22.34775432       9.12799108
C       22.00985682      23.00883777       8.61946145
C       22.05608834      24.48940345       9.12333619
F       12.81014195      16.13490031      12.55782842
F       12.97615445      23.28686005      12.55824852
F       14.96882881      24.90839661      12.55902173
F       16.75085298      26.73951635      12.57447958
F       18.43525100      28.61181294      12.69165303
F       12.19607947      18.63241287      12.55921116
F       14.50891612      21.80085109      12.53019222
F       17.23697386      24.39415288      12.84204842
F       19.25803271      26.13409825      12.65967712
F       20.87447228      28.02935364      12.60288266
F       22.78290896      29.94119331      12.54030900
F       14.46684501      17.73007073      12.70443077
F       15.18147645      19.76493065      12.62611126
F       16.77204458      21.45040475      12.46792202
F       18.60830885      22.58496984      12.76799645
F       20.37902360      23.82558939      12.68820927
F       21.94978365      25.66129618      12.59903205
F       18.88287802      19.25517302      12.44083268
F       20.56865342      21.02839658      12.50411049
F       12.85518620      25.26335738       7.22879746
F       12.87855497      20.45499575       6.96565888
F       12.44906512      22.68148002       6.98745209
F       14.56114444      23.22211957       7.08339137
F       15.51398126      25.27249085       7.25718565
F       16.42860191      27.63261010       7.23255323
F       12.88776928      16.26987644       7.24124332
F       14.35809417      18.55581221       7.34140805
F       15.42430666      20.78565819       7.10499887
F       16.96785746      23.11995353       7.17866194
F       18.23912706      26.49591861       7.20806170
F       18.86254398      28.79562624       7.11199521
F       20.86970680      29.86051314       7.04658824
F       17.87884994      20.69137381       7.10906278
F       19.39335460      22.60145801       7.21325681
F       19.39869631      24.72981141       7.25235969
F       20.59273237      26.67548773       7.32350410
F       20.77859304      20.82830934       7.17358361
F       21.99310927      22.95378006       7.24560387
C       14.16291457      27.33492472      11.20006155
C       14.45452619      34.21436181      11.23562559
C       14.95733469      35.58938841      10.65849860
C       16.30827677      36.06808488      11.19960355
C       16.60346135      37.56056689      10.71290709
C       18.00470560      37.92170076      11.21358814
C       18.25290654      39.44536815      10.82302562
C       19.67810978      39.77057092      11.33160197
C       13.37340485      29.76289973      11.20074359
C       13.64586629      31.21471245      10.60825521
C       15.20713264      31.60499179      10.57032503
C       15.58402549      33.09240464      11.19841042
C       16.93649592      33.55042924      10.54143760
C       17.44102344      35.10196386      10.68873314
C       18.73285411      35.40566730      11.51617523
C       19.17127262      36.76321209      10.82384550
C       20.51932490      37.29026417      11.29294209
C       20.74666736      38.73928479      10.74630214
C       22.22598548      39.16638386      11.24487838
C       22.67197386      40.52476259      10.68460140
C       24.07799617      41.03251063      11.18209166
C       12.78618872      26.83191685      10.65523977
C       14.44339903      28.79746530      10.72310751
C       15.86324477      29.16058997      11.38694362
C       16.28750118      30.71238153      11.30064732
C       17.72386636      31.14573821      10.66019768
C       18.05999200      32.56337571      11.11768761
C       19.46122375      33.01918300      10.58419912
C       19.84119897      34.24654832      11.50531388
C       21.32008660      34.82194712      11.37696589
C       21.63117363      36.31026885      10.81051872
C       23.04942598      36.75296885      11.25263624
C       23.33455564      38.21580808      10.71146467
C       18.74383310      29.92896058      10.68824898
C       20.19498640      30.38827710      11.07284675
C       20.54643949      31.75791069      10.50579791
C       21.91741011      32.23976102      11.14400527
C       22.21250005      33.70755796      10.72549854
C       14.07602389      36.42678255       8.62154743
C       14.15978787      31.91145867       8.31745960
C       14.06136451      33.51075862       8.29001550
C       15.48888452      34.22206659       8.42137748
C       15.30258094      35.63170873       9.09054528
C       16.67082765      36.35854446       8.64381289
C       16.69736837      37.79485911       9.16085484
C       17.97835767      38.61700897       8.56899150
C       12.85299345      26.76329677       9.11311820
C       14.18907307      27.43527150       8.63120506
C       14.29885294      28.91248102       9.16226374
C       15.56120705      29.70017400       8.73089751
C       15.44239077      31.32004132       9.03683181
C       16.72540869      31.93728741       8.49711740
C       16.77941424      33.42309358       8.98500562
C       18.06995353      34.17535268       8.55578352
C       17.88608215      35.54799714       9.22946386
C       19.23162779      36.42181970       9.29305259
C       19.32849989      37.81065323       8.56430287
C       20.61874573      38.63733225       9.14000924
C       20.55429957      40.08410093       8.43147978
C       21.90371990      40.91739631       8.40051856
C       16.88580179      28.81526563       9.29134524
C       18.21735600      29.65681254       9.17185844
C       17.94698030      31.19919142       9.05741557
C       19.25349245      31.94613823       8.49739654
C       19.32826414      33.38392174       9.06777487
C       20.63934028      34.08888779       8.56761312
C       20.59978007      35.67078834       8.61240064
C       21.84522471      36.34447667       9.27030522
C       21.88114777      37.84429141       8.71139062
C       23.19047716      38.54587593       9.18713620
C       23.03456563      40.19969058       9.16559875
C       20.58732507      31.33081457       8.96297770
C       21.93720468      32.01422729       8.55725970
C       21.99612054      33.51343436       9.14342086
C       23.28634691      34.17451781       8.63489123
C       23.33257843      35.65508349       9.13876597
F       14.08663204      27.30058035      12.57325820
F       14.25264455      34.45254009      12.57367830
F       16.24531890      36.07407665      12.57445151
F       18.02734308      37.90519639      12.58990935
F       19.71174110      39.77749299      12.70708281
F       13.47256957      29.79809291      12.57464094
F       15.78540622      32.96653113      12.54562200
F       18.51346396      35.55983292      12.85747820
F       20.53452281      37.29977829      12.67510690
F       22.15096237      39.19503368      12.61831244
F       24.05939905      41.10687335      12.55573878
F       15.74333510      28.89575077      12.71986054
F       16.45796654      30.93061069      12.64154104
F       18.04853467      32.61608479      12.48335179
F       19.88479894      33.75064988      12.78342622
F       21.65551370      34.99126943      12.70363905
F       23.22627375      36.82697622      12.61446183
F       20.15936811      30.42085306      12.45626246
F       21.84514351      32.19407662      12.51954027
F       14.13167630      36.42903742       7.24422724
F       14.15504507      31.62067579       6.98108866
F       13.72555522      33.84716006       7.00288187
F       15.83763453      34.38779961       7.09882115
F       16.79047136      36.43817089       7.27261543
F       17.70509200      38.79829014       7.24798301
F       14.16425937      27.43555648       7.25667310
F       15.63458427      29.72149225       7.35683782
F       16.70079676      31.95133823       7.12042865
F       18.24434755      34.28563357       7.19409172
F       19.51561716      37.66159865       7.22349148
F       20.13903408      39.96130628       7.12742498
F       22.14619690      41.02619318       7.06201802
F       19.15534004      31.85705385       7.12449255
F       20.66984469      33.76713805       7.22868659
F       20.67518641      35.89549145       7.26778947
F       21.86922246      37.84116777       7.33893388
F       22.05508314      31.99398938       7.18901338
F       23.26959936      34.11946010       7.26103365
C       15.43940467      38.50060476      11.21549133
C       15.73101629      45.38004185      11.25105536
C       16.23382478      46.75506845      10.67392837
C       17.58476687      47.23376492      11.21503333
C       17.87995144      48.72624693      10.72833687
C       19.28119569      49.08738080      11.22901792
C       19.52939663      50.61104819      10.83845540
C       20.95459988      50.93625096      11.34703175
C       14.64989495      40.92857977      11.21617337
C       14.92235639      42.38039249      10.62368499
C       16.48362273      42.77067183      10.58575481
C       16.86051558      44.25808468      11.21384020
C       18.21298601      44.71610928      10.55686738
C       18.71751354      46.26764390      10.70416292
C       20.00934421      46.57134734      11.53160501
C       20.44776272      47.92889213      10.83927528
C       21.79581500      48.45594421      11.30837186
C       22.02315746      49.90496483      10.76173192
C       23.50247557      50.33206390      11.26030816
C       23.94846395      51.69044263      10.70003118
C       25.35448626      52.19819067      11.19752144
C       14.06267881      37.99759689      10.67066955
C       15.71988913      39.96314534      10.73853728
C       17.13973487      40.32627001      11.40237340
C       17.56399128      41.87806157      11.31607710
C       19.00035646      42.31141825      10.67562746
C       19.33648210      43.72905575      11.13311738
C       20.73771385      44.18486304      10.59962890
C       21.11768906      45.41222836      11.52074366
C       22.59657669      45.98762716      11.39239567
C       22.90766373      47.47594889      10.82594850
C       24.32591607      47.91864889      11.26806602
C       24.61104574      49.38148812      10.72689445
C       20.02032319      41.09464062      10.70367876
C       21.47147650      41.55395714      11.08827653
C       21.82292958      42.92359073      10.52122769
C       23.19390020      43.40544106      11.15943505
C       23.48899015      44.87323800      10.74092832
C       15.35251399      47.59246259       8.63697721
C       15.43627797      43.07713871       8.33288938
C       15.33785460      44.67643866       8.30544528
C       16.76537461      45.38774663       8.43680726
C       16.57907104      46.79738877       9.10597506
C       17.94731775      47.52422450       8.65924267
C       17.97385847      48.96053915       9.17628462
C       19.25484776      49.78268901       8.58442127
C       14.12948355      37.92897681       9.12854798
C       15.46556317      38.60095154       8.64663484
C       15.57534304      40.07816106       9.17769352
C       16.83769714      40.86585404       8.74632729
C       16.71888087      42.48572136       9.05226159
C       18.00189878      43.10296745       8.51254718
C       18.05590433      44.58877362       9.00043540
C       19.34644362      45.34103272       8.57121329
C       19.16257224      46.71367718       9.24489364
C       20.50811788      47.58749974       9.30848237
C       20.60498998      48.97633327       8.57973265
C       21.89523583      49.80301229       9.15543902
C       21.83078967      51.24978097       8.44690956
C       23.18021000      52.08307635       8.41594833
C       18.16229188      39.98094567       9.30677501
C       19.49384610      40.82249258       9.18728822
C       19.22347040      42.36487146       9.07284534
C       20.52998254      43.11181827       8.51282632
C       20.60475424      44.54960178       9.08320465
C       21.91583037      45.25456783       8.58304290
C       21.87627017      46.83646838       8.62783042
C       23.12171481      47.51015671       9.28573499
C       23.15763787      49.00997145       8.72682040
C       24.46696725      49.71155597       9.20256598
C       24.31105572      51.36537062       9.18102853
C       21.86381517      42.49649461       8.97840748
C       23.21369477      43.17990733       8.57268948
C       23.27261064      44.67911440       9.15885064
C       24.56283701      45.34019785       8.65032101
C       24.60906853      46.82076353       9.15419575
F       15.36312214      38.46626039      12.58868798
F       15.52913464      45.61822013      12.58910808
F       17.52180900      47.23975669      12.58988129
F       19.30383317      49.07087643      12.60533913
F       20.98823119      50.94317303      12.72251259
F       14.74905967      40.96377295      12.59007071
F       17.06189631      44.13221117      12.56105178
F       19.78995405      46.72551296      12.87290798
F       21.81101291      48.46545833      12.69053668
F       23.42745247      50.36071372      12.63374222
F       25.33588915      52.27255339      12.57116856
F       17.01982520      40.06143081      12.73529032
F       17.73445664      42.09629073      12.65697082
F       19.32502477      43.78176483      12.49878157
F       21.16128904      44.91632992      12.79885600
F       22.93200379      46.15694947      12.71906883
F       24.50276385      47.99265626      12.62989160
F       21.43585821      41.58653310      12.47169223
F       23.12163361      43.35975666      12.53497005
F       15.40816639      47.59471746       7.25965702
F       15.43153517      42.78635583       6.99651844
F       15.00204532      45.01284010       7.01831165
F       17.11412463      45.55347965       7.11425093
F       18.06696145      47.60385093       7.28804521
F       18.98158210      49.96397018       7.26341279
F       15.44074947      38.60123652       7.27210288
F       16.91107436      40.88717229       7.37226760
F       17.97728685      43.11701827       7.13585843
F       19.52083765      45.45131361       7.20952150
F       20.79210725      48.82727869       7.23892125
F       21.41552417      51.12698632       7.14285476
F       23.42268700      52.19187322       7.07744779
F       20.43183013      43.02273389       7.13992233
F       21.94633479      44.93281809       7.24411636
F       21.95167650      47.06117149       7.28321924
F       23.14571256      49.00684781       7.35436365
F       23.33157323      43.15966942       7.20444316
F       24.54608946      45.28514014       7.27646343
C       16.71589477      49.66628480      11.23092111
C       17.00750638      56.54572189      11.26648514
C       17.51031488      57.92074849      10.68935815
C       18.86125696      58.39944496      11.23046311
C       19.15644154      59.89192697      10.74376665
C       20.55768579      60.25306084      11.24444770
C       20.80588673      61.77672823      10.85388518
C       22.23108997      62.10193100      11.36246153
C       15.92638504      52.09425981      11.23160315
C       16.19884648      53.54607253      10.63911477
C       17.76011283      53.93635187      10.60118458
C       18.13700568      55.42376472      11.22926998
C       19.48947611      55.88178932      10.57229716
C       19.99400363      57.43332394      10.71959270
C       21.28583431      57.73702738      11.54703479
C       21.72425282      59.09457217      10.85470505
C       23.07230509      59.62162425      11.32380164
C       23.29964755      61.07064487      10.77716170
C       24.77896567      61.49774394      11.27573794
C       25.22495405      62.85612267      10.71546096
C       26.63097636      63.36387071      11.21295122
C       15.33916891      49.16327693      10.68609932
C       16.99637922      51.12882538      10.75396706
C       18.41622497      51.49195005      11.41780318
C       18.84048137      53.04374161      11.33150688
C       20.27684655      53.47709829      10.69105724
C       20.61297219      54.89473579      11.14854716
C       22.01420395      55.35054308      10.61505867
C       22.39417916      56.57790840      11.53617344
C       23.87306679      57.15330720      11.40782545
C       24.18415382      58.64162893      10.84137828
C       25.60240617      59.08432893      11.28349579
C       25.88753584      60.54716816      10.74232423
C       21.29681329      52.26032066      10.71910854
C       22.74796659      52.71963718      11.10370630
C       23.09941968      54.08927077      10.53665746
C       24.47039030      54.57112110      11.17486483
C       24.76548024      56.03891804      10.75635810
C       16.62900409      58.75814263       8.65240699
C       16.71276806      54.24281875       8.34831916
C       16.61434470      55.84211870       8.32087506
C       18.04186471      56.55342667       8.45223704
C       17.85556113      57.96306881       9.12140484
C       19.22380784      58.68990454       8.67467245
C       19.25034856      60.12621919       9.19171440
C       20.53133786      60.94836905       8.59985105
C       15.40597365      49.09465685       9.14397776
C       16.74205326      49.76663158       8.66206462
C       16.85183313      51.24384110       9.19312329
C       18.11418724      52.03153408       8.76175707
C       17.99537096      53.65140140       9.06769137
C       19.27838888      54.26864749       8.52797696
C       19.33239443      55.75445366       9.01586518
C       20.62293372      56.50671276       8.58664307
C       20.43906234      57.87935722       9.26032341
C       21.78460798      58.75317978       9.32391215
C       21.88148008      60.14201331       8.59516243
C       23.17172592      60.96869233       9.17086879
C       23.10727976      62.41546101       8.46233933
C       24.45670010      63.24875639       8.43137811
C       19.43878198      51.14662571       9.32220479
C       20.77033619      51.98817262       9.20271799
C       20.49996049      53.53055150       9.08827512
C       21.80647264      54.27749831       8.52825610
C       21.88124433      55.71528182       9.09863443
C       23.19232047      56.42024787       8.59847267
C       23.15276026      58.00214842       8.64326020
C       24.39820490      58.67583675       9.30116477
C       24.43412796      60.17565150       8.74225018
C       25.74345735      60.87723601       9.21799576
C       25.58754582      62.53105066       9.19645831
C       23.14030526      53.66217465       8.99383726
C       24.49018487      54.34558737       8.58811926
C       24.54910074      55.84479444       9.17428042
C       25.83932710      56.50587789       8.66575078
C       25.88555863      57.98644357       9.16962553
F       16.63961224      49.63194043      12.60411776
F       16.80562474      56.78390017      12.60453785
F       18.79829909      58.40543673      12.60531107
F       20.58032327      60.23655647      12.62076891
F       22.26472129      62.10885307      12.73794237
F       16.02554976      52.12945300      12.60550049
F       18.33838641      55.29789121      12.57648156
F       21.06644415      57.89119300      12.88833775
F       23.08750300      59.63113837      12.70596646
F       24.70394257      61.52639376      12.64917200
F       26.61237925      63.43823343      12.58659834
F       18.29631529      51.22711085      12.75072010
F       19.01094673      53.26197077      12.67240060
F       20.60151487      54.94744487      12.51421135
F       22.43777913      56.08200996      12.81428578
F       24.20849389      57.32262951      12.73449861
F       25.77925394      59.15833630      12.64532138
F       22.71234830      52.75221314      12.48712201
F       24.39812370      54.52543670      12.55039982
F       16.68465649      58.76039750       7.27508679
F       16.70802526      53.95203587       7.01194822
F       16.27853541      56.17852014       7.03374143
F       18.39061473      56.71915969       7.12968070
F       19.34345155      58.76953097       7.30347498
F       20.25807219      61.12965022       7.27884257
F       16.71723956      49.76691657       7.28753266
F       18.18756446      52.05285233       7.38769738
F       19.25377695      54.28269831       7.15128821
F       20.79732775      56.61699365       7.22495128
F       22.06859735      59.99295873       7.25435103
F       22.69201427      62.29266636       7.15828454
F       24.69917709      63.35755326       7.09287757
F       21.70832023      54.18841393       7.15535211
F       23.22282489      56.09849813       7.25954614
F       23.22816660      58.22685153       7.29864902
F       24.42220265      60.17252785       7.36979343
F       24.60806333      54.32534946       7.21987294
F       25.82257956      56.45082018       7.29189321
C       17.99238486      60.83196484      11.24635089
C       18.28399648      67.71140193      11.28191492
C       18.78680498      69.08642853      10.70478793
C       20.13774706      69.56512500      11.24589289
C       20.43293163      71.05760701      10.75919643
C       21.83417588      71.41874088      11.25987747
C       22.08237682      72.94240827      10.86931495
C       23.50758007      73.26761104      11.37789130
C       17.20287514      63.25993986      11.24703293
C       17.47533658      64.71175257      10.65454455
C       19.03660292      65.10203191      10.61661436
C       19.41349578      66.58944476      11.24469976
C       20.76596620      67.04746936      10.58772694
C       21.27049373      68.59900398      10.73502247
C       22.56232440      68.90270742      11.56246456
C       23.00074291      70.26025221      10.87013483
C       24.34879519      70.78730429      11.33923142
C       24.57613765      72.23632491      10.79259148
C       26.05545576      72.66342398      11.29116772
C       26.50144415      74.02180271      10.73089074
C       27.90746646      74.52955075      11.22838099
C       16.61565901      60.32895697      10.70152910
C       18.27286932      62.29450542      10.76939684
C       19.69271506      62.65763009      11.43323295
C       20.11697147      64.20942165      11.34693666
C       21.55333665      64.64277833      10.70648702
C       21.88946229      66.06041583      11.16397694
C       23.29069404      66.51622312      10.63048845
C       23.67066925      67.74358844      11.55160322
C       25.14955689      68.31898724      11.42325522
C       25.46064392      69.80730897      10.85680806
C       26.87889627      70.25000897      11.29892557
C       27.16402593      71.71284820      10.75775401
C       22.57330339      63.42600070      10.73453831
C       24.02445669      63.88531722      11.11913608
C       24.37590978      65.25495081      10.55208724
C       25.74688040      65.73680114      11.19029461
C       26.04197034      67.20459808      10.77178788
C       17.90549418      69.92382267       8.66783677
C       17.98925816      65.40849879       8.36374893
C       17.89083479      67.00779874       8.33630483
C       19.31835481      67.71910671       8.46766682
C       19.13205123      69.12874885       9.13683462
C       20.50029794      69.85558458       8.69010223
C       20.52683866      71.29189923       9.20714417
C       21.80782796      72.11404909       8.61528083
C       16.68246374      60.26033689       9.15940754
C       18.01854336      60.93231162       8.67749439
C       18.12832323      62.40952114       9.20855307
C       19.39067733      63.19721412       8.77718685
C       19.27186106      64.81708144       9.08312115
C       20.55487897      65.43432753       8.54340674
C       20.60888452      66.92013370       9.03129496
C       21.89942381      67.67239280       8.60207285
C       21.71555243      69.04503726       9.27575319
C       23.06109807      69.91885982       9.33934193
C       23.15797017      71.30769335       8.61059221
C       24.44821602      72.13437237       9.18629857
C       24.38376986      73.58114105       8.47776911
C       25.73319019      74.41443643       8.44680789
C       20.71527207      62.31230575       9.33763457
C       22.04682629      63.15385266       9.21814777
C       21.77645059      64.69623154       9.10370490
C       23.08296273      65.44317835       8.54368587
C       23.15773443      66.88096186       9.11406421
C       24.46881056      67.58592791       8.61390245
C       24.42925036      69.16782846       8.65868998
C       25.67469500      69.84151679       9.31659455
C       25.71061806      71.34133154       8.75767995
C       27.01994744      72.04291605       9.23342553
C       26.86403591      73.69673070       9.21188809
C       24.41679536      64.82785469       9.00926704
C       25.76667496      65.51126741       8.60354904
C       25.82559083      67.01047448       9.18971020
C       27.11581720      67.67155793       8.68118056
C       27.16204872      69.15212361       9.18505530
F       17.91610233      60.79762047      12.61954754
F       18.08211483      67.94958021      12.61996763
F       20.07478919      69.57111677      12.62074085
F       21.85681337      71.40223651      12.63619869
F       23.54121138      73.27453311      12.75337214
F       17.30203986      63.29513304      12.62093027
F       19.61487651      66.46357125      12.59191134
F       22.34293424      69.05687304      12.90376753
F       24.36399310      70.79681841      12.72139623
F       25.98043266      72.69207380      12.66460177
F       27.88886934      74.60391347      12.60202812
F       19.57280539      62.39279089      12.76614988
F       20.28743683      64.42765081      12.68783038
F       21.87800496      66.11312491      12.52964113
F       23.71426923      67.24769000      12.82971556
F       25.48498399      68.48830955      12.74992839
F       27.05574404      70.32401634      12.66075116
F       23.98883840      63.91789318      12.50255179
F       25.67461380      65.69111674      12.56582960
F       17.96114659      69.92607754       7.29051657
F       17.98451536      65.11771591       7.02737800
F       17.55502551      67.34420018       7.04917120
F       19.66710482      67.88483973       7.14511048
F       20.61994164      69.93521101       7.31890476
F       21.53456229      72.29533026       7.29427234
F       17.99372966      60.93259661       7.30296243
F       19.46405455      63.21853237       7.40312716
F       20.53026705      65.44837835       7.16671799
F       22.07381784      67.78267369       7.24038106
F       23.34508744      71.15863877       7.26978081
F       23.96850436      73.45834640       7.17371432
F       25.97566719      74.52323330       7.10830735
F       22.98481032      65.35409397       7.17078189
F       24.49931498      67.26417817       7.27497592
F       24.50465670      69.39253157       7.31407880
F       25.69869275      71.33820789       7.38522321
F       25.88455342      65.49102950       7.23530272
F       27.09906965      67.61650022       7.30732298
C       19.26887496      71.99764488      11.26178067
C       19.56048657      78.87708197      11.29734470
C       20.06329507      80.25210857      10.72021771
C       21.41423715      80.73080504      11.26132266
C       21.70942173      82.22328705      10.77462620
C       23.11066598      82.58442092      11.27530725
C       23.35886692      84.10808831      10.88474473
C       24.78407016      84.43329108      11.39332108
C       18.47936523      74.42561990      11.26246270
C       18.75182667      75.87743261      10.66997432
C       20.31309302      76.26771195      10.63204414
C       20.68998587      77.75512480      11.26012953
C       22.04245630      78.21314940      10.60315671
C       22.54698383      79.76468402      10.75045225
C       23.83881450      80.06838746      11.57789434
C       24.27723301      81.42593225      10.88556461
C       25.62528528      81.95298433      11.35466120
C       25.85262774      83.40200495      10.80802125
C       27.33194586      83.82910402      11.30659749
C       27.77793424      85.18748275      10.74632051
C       29.18395655      85.69523079      11.24381077
C       17.89214910      71.49463701      10.71695888
C       19.54935942      73.46018546      10.78482662
C       20.96920516      73.82331013      11.44866273
C       21.39346157      75.37510169      11.36236644
C       22.82982675      75.80845837      10.72191680
C       23.16595238      77.22609587      11.17940672
C       24.56718414      77.68190316      10.64591823
C       24.94715935      78.90926848      11.56703299
C       26.42604698      79.48466728      11.43868500
C       26.73713402      80.97298901      10.87223783
C       28.15538636      81.41568901      11.31435535
C       28.44051603      82.87852824      10.77318379
C       23.84979348      74.59168074      10.74996809
C       25.30094679      75.05099726      11.13456586
C       25.65239987      76.42063085      10.56751702
C       27.02337049      76.90248118      11.20572439
C       27.31846043      78.37027812      10.78721766
C       19.18198428      81.08950271       8.68326655
C       19.26574825      76.57417883       8.37917871
C       19.16732489      78.17347878       8.35173461
C       20.59484490      78.88478675       8.48309660
C       20.40854133      80.29442889       9.15226440
C       21.77678804      81.02126462       8.70553201
C       21.80332875      82.45757927       9.22257395
C       23.08431805      83.27972913       8.63071061
C       17.95895384      71.42601693       9.17483732
C       19.29503346      72.09799166       8.69292417
C       19.40481333      73.57520118       9.22398285
C       20.66716743      74.36289416       8.79261662
C       20.54835115      75.98276148       9.09855092
C       21.83136907      76.60000757       8.55883652
C       21.88537462      78.08581374       9.04672473
C       23.17591391      78.83807284       8.61750263
C       22.99204253      80.21071730       9.29118297
C       24.33758817      81.08453986       9.35477170
C       24.43446027      82.47337339       8.62602198
C       25.72470612      83.30005241       9.20172835
C       25.66025996      84.74682109       8.49319889
C       27.00968029      85.58011647       8.46223767
C       21.99176217      73.47798579       9.35306435
C       23.32331639      74.31953270       9.23357755
C       23.05294068      75.86191158       9.11913468
C       24.35945283      76.60885839       8.55911565
C       24.43422452      78.04664190       9.12949399
C       25.74530066      78.75160795       8.62933223
C       25.70574045      80.33350850       8.67411975
C       26.95118510      81.00719683       9.33202433
C       26.98710816      82.50701158       8.77310973
C       28.29643754      83.20859609       9.24885531
C       28.14052601      84.86241074       9.22731786
C       25.69328546      75.99353473       9.02469681
C       27.04316506      76.67694745       8.61897881
C       27.10208093      78.17615452       9.20513997
C       28.39230730      78.83723797       8.69661034
C       28.43853882      80.31780366       9.20048508
F       19.19259243      71.96330051      12.63497731
F       19.35860493      79.11526025      12.63539741
F       21.35127929      80.73679681      12.63617062
F       23.13330346      82.56791655      12.65162847
F       24.81770148      84.44021315      12.76880192
F       18.57852995      74.46081308      12.63636005
F       20.89136660      77.62925129      12.60734111
F       23.61942434      80.22255308      12.91919731
F       25.64048319      81.96249845      12.73682601
F       27.25692276      83.85775384      12.68003155
F       29.16535944      85.76959351      12.61745789
F       20.84929549      73.55847093      12.78157965
F       21.56392693      75.59333085      12.70326015
F       23.15449506      77.27880495      12.54507090
F       24.99075933      78.41337004      12.84514534
F       26.76147408      79.65398959      12.76535816
F       28.33223413      81.48969638      12.67618094
F       25.26532850      75.08357322      12.51798157
F       26.95110389      76.85679678      12.58125938
F       19.23763668      81.09175758       7.30594635
F       19.26100545      76.28339595       7.04280777
F       18.83151560      78.50988022       7.06460098
F       20.94359492      79.05051977       7.16054026
F       21.89643174      81.10089105       7.33433454
F       22.81105239      83.46101030       7.30970212
F       19.27021976      72.09827665       7.31839221
F       20.74054465      74.38421241       7.41855693
F       21.80675714      76.61405839       7.18214776
F       23.35030794      78.94835373       7.25581083
F       24.62157754      82.32431881       7.28521059
F       25.24499446      84.62402644       7.18914410
F       27.25215728      85.68891334       7.12373713
F       24.26130042      76.51977401       7.18621167
F       25.77580508      78.42985821       7.29040570
F       25.78114679      80.55821161       7.32950858
F       26.97518284      82.50388793       7.40065299
F       27.16104352      76.65670954       7.25073250
F       28.37555975      78.78218026       7.32275276
C       21.89894074       9.46094326      11.16866336
C       22.19055236      16.34038035      11.20422739
C       22.69336086      17.71540695      10.62710040
C       24.04430294      18.19410343      11.16820535
C       24.33948752      19.68658543      10.68150889
C       25.74073177      20.04771930      11.18218994
C       25.98893271      21.57138670      10.79162742
C       27.41413595      21.89658946      11.30020377
C       21.10943102      11.88891828      11.16934539
C       21.38189246      13.34073100      10.57685701
C       22.94315881      13.73101033      10.53892683
C       23.32005166      15.21842319      11.16701222
C       24.67252209      15.67644779      10.51003940
C       25.17704961      17.22798241      10.65733494
C       26.46888028      17.53168584      11.48477703
C       26.90729880      18.88923063      10.79244730
C       28.25535107      19.41628271      11.26154389
C       28.48269353      20.86530333      10.71490394
C       29.96201165      21.29240241      11.21348018
C       30.40800003      22.65078113      10.65320320
C       31.81402234      23.15852917      11.15069346
C       20.52221489       8.95793539      10.62384157
C       22.17942520      10.92348385      10.69170931
C       23.59927094      11.28660851      11.35554542
C       24.02352735      12.83840008      11.26924912
C       25.45989253      13.27175675      10.62879949
C       25.79601817      14.68939426      11.08628941
C       27.19724993      15.14520154      10.55280092
C       27.57722514      16.37256686      11.47391568
C       29.05611277      16.94796566      11.34556769
C       29.36719980      18.43628740      10.77912052
C       30.78545215      18.87898739      11.22123804
C       31.07058182      20.34182662      10.68006647
C       26.47985927      12.05497912      10.65685078
C       27.93101257      12.51429564      11.04144855
C       28.28246566      13.88392924      10.47439971
C       29.65343628      14.36577956      11.11260708
C       29.94852622      15.83357651      10.69410035
C       21.81205006      18.55280109       8.59014924
C       21.89581404      14.03747721       8.28606140
C       21.79739068      15.63677717       8.25861730
C       23.22491069      16.34808513       8.38997929
C       23.03860711      17.75772727       9.05914709
C       24.40685382      18.48456301       8.61241470
C       24.43339454      19.92087766       9.12945664
C       25.71438384      20.74302751       8.53759330
C       20.58901962       8.88931531       9.08172001
C       21.92509924       9.56129005       8.59980686
C       22.03487911      11.03849956       9.13086554
C       23.29723322      11.82619254       8.69949931
C       23.17841694      13.44605986       9.00543361
C       24.46143486      14.06330595       8.46571920
C       24.51544041      15.54911213       8.95360742
C       25.80597970      16.30137122       8.52438532
C       25.62210832      17.67401569       9.19806566
C       26.96765396      18.54783825       9.26165439
C       27.06452606      19.93667177       8.53290467
C       28.35477190      20.76335079       9.10861104
C       28.29032574      22.21011948       8.40008158
C       29.63974608      23.04341485       8.36912036
C       24.62182796      10.94128417       9.25994704
C       25.95338217      11.78283108       9.14046024
C       25.68300647      13.32520996       9.02601737
C       26.98951862      14.07215677       8.46599834
C       27.06429031      15.50994028       9.03637668
C       28.37536645      16.21490634       8.53621492
C       28.33580624      17.79680688       8.58100244
C       29.58125088      18.47049521       9.23890702
C       29.61717394      19.97030996       8.67999242
C       30.92650333      20.67189448       9.15573800
C       30.77059180      22.32570912       9.13420055
C       28.32335124      13.45683311       8.93157950
C       29.67323085      14.14024583       8.52586150
C       29.73214671      15.63945290       9.11202266
C       31.02237308      16.30053636       8.60349303
C       31.06860461      17.78110204       9.10736777
F       21.82265822       9.42659889      12.54186000
F       21.98867072      16.57855863      12.54228010
F       23.98134507      18.20009519      12.54305331
F       25.76336925      20.03121494      12.55851116
F       27.44776727      21.90351153      12.67568461
F       21.20859574      11.92411146      12.54324274
F       23.52143239      15.09254968      12.51422380
F       26.24949013      17.68585147      12.82608000
F       28.27054898      19.42579684      12.64370870
F       29.88698855      21.32105222      12.58691424
F       31.79542522      23.23289189      12.52434058
F       23.47936127      11.02176931      12.68846234
F       24.19399271      13.05662923      12.61014284
F       25.78456084      14.74210333      12.45195359
F       27.62082511      15.87666843      12.75202802
F       29.39153987      17.11728797      12.67224085
F       30.96229992      18.95299476      12.58306363
F       27.89539428      12.54687161      12.42486426
F       29.58116968      14.32009516      12.48814207
F       21.86770247      18.55505596       7.21282904
F       21.89107124      13.74669433       6.94969046
F       21.46158139      15.97317861       6.97148367
F       23.57366071      16.51381815       7.06742295
F       24.52649753      18.56418943       7.24121723
F       25.44111817      20.92430868       7.21658481
F       21.90028554       9.56157503       7.22527490
F       23.37061044      11.84751079       7.32543962
F       24.43682293      14.07735678       7.08903045
F       25.98037373      16.41165211       7.16269352
F       27.25164333      19.78761720       7.19209328
F       27.87506025      22.08732482       7.09602678
F       29.88222307      23.15221172       7.03061982
F       26.89136621      13.98307239       7.09309436
F       28.40587086      15.89315660       7.19728839
F       28.41121258      18.02151000       7.23639127
F       29.60524863      19.96718632       7.30753568
F       29.79110931      14.12000792       7.15761518
F       31.00562554      16.24547864       7.22963545
C       23.17543084      20.62662330      11.18409313
C       23.46704246      27.50606039      11.21965717
C       23.96985096      28.88108699      10.64253017
C       25.32079304      29.35978347      11.18363513
C       25.61597761      30.85226547      10.69693867
C       27.01722186      31.21339934      11.19761972
C       27.26542280      32.73706674      10.80705720
C       28.69062605      33.06226950      11.31563355
C       22.38592112      23.05459832      11.18477517
C       22.65838256      24.50641104      10.59228679
C       24.21964890      24.89669037      10.55435661
C       24.59654175      26.38410323      11.18244200
C       25.94901218      26.84212783      10.52546918
C       26.45353971      28.39366245      10.67276472
C       27.74537038      28.69736588      11.50020681
C       28.18378889      30.05491067      10.80787708
C       29.53184117      30.58196275      11.27697367
C       29.75918363      32.03098337      10.73033372
C       31.23850174      32.45808245      11.22890996
C       31.68449012      33.81646117      10.66863298
C       33.09051244      34.32420921      11.16612324
C       21.79870499      20.12361543      10.63927135
C       23.45591530      22.08916389      10.70713909
C       24.87576104      22.45228855      11.37097520
C       25.30001745      24.00408012      11.28467890
C       26.73638263      24.43743679      10.64422926
C       27.07250827      25.85507430      11.10171919
C       28.47374002      26.31088158      10.56823070
C       28.85371523      27.53824690      11.48934546
C       30.33260286      28.11364570      11.36099747
C       30.64368990      29.60196744      10.79455030
C       32.06194224      30.04466743      11.23666782
C       32.34707191      31.50750666      10.69549625
C       27.75634936      23.22065916      10.67228056
C       29.20750267      23.67997568      11.05687833
C       29.55895575      25.04960928      10.48982949
C       30.92992637      25.53145960      11.12803685
C       31.22501632      26.99925655      10.70953012
C       23.08854016      29.71848113       8.60557901
C       23.17230414      25.20315725       8.30149118
C       23.07388077      26.80245721       8.27404708
C       24.50140078      27.51376517       8.40540906
C       24.31509721      28.92340731       9.07457686
C       25.68334392      29.65024305       8.62784447
C       25.70988464      31.08655770       9.14488642
C       26.99087394      31.90870755       8.55302308
C       21.86550972      20.05499535       9.09714978
C       23.20158934      20.72697009       8.61523664
C       23.31136921      22.20417960       9.14629532
C       24.57372331      22.99187258       8.71492909
C       24.45490704      24.61173991       9.02086339
C       25.73792495      25.22898599       8.48114898
C       25.79193050      26.71479217       8.96903720
C       27.08246979      27.46705126       8.53981510
C       26.89859841      28.83969573       9.21349544
C       28.24414405      29.71351829       9.27708417
C       28.34101615      31.10235182       8.54833445
C       29.63126200      31.92903083       9.12404082
C       29.56681584      33.37579952       8.41551136
C       30.91623617      34.20909489       8.38455013
C       25.89831805      22.10696421       9.27537681
C       27.22987227      22.94851112       9.15589002
C       26.95949657      24.49089000       9.04144714
C       28.26600871      25.23783681       8.48142812
C       28.34078041      26.67562032       9.05180645
C       29.65185654      27.38058638       8.55164470
C       29.61229634      28.96248692       8.59643222
C       30.85774098      29.63617525       9.25433680
C       30.89366404      31.13599000       8.69542220
C       32.20299342      31.83757452       9.17116778
C       32.04708189      33.49138916       9.14963033
C       29.59984134      24.62251315       8.94700928
C       30.94972094      25.30592587       8.54129128
C       31.00863681      26.80513294       9.12745244
C       32.29886318      27.46621640       8.61892281
C       32.34509470      28.94678208       9.12279755
F       23.09914831      20.59227893      12.55728978
F       23.26516081      27.74423867      12.55770988
F       25.25783517      29.36577523      12.55848309
F       27.03985934      31.19689498      12.57394093
F       28.72425736      33.06919157      12.69111439
F       22.48508584      23.08979150      12.55867251
F       24.79792248      26.25822972      12.52965358
F       27.52598022      28.85153151      12.84150978
F       29.54703908      30.59147688      12.65913848
F       31.16347864      32.48673226      12.60234402
F       33.07191532      34.39857193      12.53977036
F       24.75585137      22.18744935      12.70389212
F       25.47048281      24.22230927      12.62557262
F       27.06105094      25.90778337      12.46738337
F       28.89731521      27.04234847      12.76745780
F       30.66802996      28.28296801      12.68767063
F       32.23879002      30.11867480      12.59849340
F       29.17188438      23.71255165      12.44029403
F       30.85765978      25.48577520      12.50357185
F       23.14419256      29.72073600       7.22825882
F       23.16756134      24.91237437       6.96512024
F       22.73807149      27.13885865       6.98691345
F       24.85015080      27.67949819       7.08285273
F       25.80298762      29.72986947       7.25664701
F       26.71760827      32.08998872       7.23201459
F       23.17677564      20.72725507       7.24070468
F       24.64710053      23.01319083       7.34086940
F       25.71331302      25.24303682       7.10446023
F       27.25686382      27.57733215       7.17812330
F       28.52813342      30.95329724       7.20752305
F       29.15155034      33.25300486       7.11145656
F       31.15871317      34.31789176       7.04604960
F       28.16785630      25.14875243       7.10852413
F       29.68236096      27.05883664       7.21271816
F       29.68770268      29.18719004       7.25182105
F       30.88173873      31.13286636       7.32296545
F       31.06759940      25.28568796       7.17304496
F       32.28211563      27.41115868       7.24506523
C       24.45192094      31.79230334      11.19952291
C       24.74353255      38.67174043      11.23508694
C       25.24634105      40.04676703      10.65795995
C       26.59728313      40.52546351      11.19906491
C       26.89246771      42.01794551      10.71236845
C       28.29371196      42.37907938      11.21304950
C       28.54191290      43.90274678      10.82248698
C       29.96711614      44.22794954      11.33106333
C       23.66241121      34.22027836      11.20020495
C       23.93487265      35.67209108      10.60771657
C       25.49613900      36.06237041      10.56978638
C       25.87303185      37.54978327      11.19787178
C       27.22550228      38.00780787      10.54089896
C       27.73002980      39.55934249      10.68819450
C       29.02186048      39.86304592      11.51563659
C       29.46027899      41.22059071      10.82330686
C       30.80833126      41.74764279      11.29240344
C       31.03567372      43.19666341      10.74576350
C       32.51499184      43.62376249      11.24433974
C       32.96098022      44.98214121      10.68406276
C       34.36700253      45.48988925      11.18155302
C       23.07519508      31.28929547      10.65470113
C       24.73240540      33.25484393      10.72256886
C       26.15225114      33.61796859      11.38640498
C       26.57650754      35.16976016      11.30010868
C       28.01287272      35.60311683      10.65965904
C       28.34899836      37.02075434      11.11714896
C       29.75023012      37.47656162      10.58366048
C       30.13020533      38.70392694      11.50477524
C       31.60909296      39.27932574      11.37642725
C       31.92018000      40.76764748      10.80998008
C       33.33843234      41.21034747      11.25209759
C       33.62356201      42.67318670      10.71092603
C       29.03283946      34.38633920      10.68771034
C       30.48399277      34.84565572      11.07230810
C       30.83544585      36.21528932      10.50525926
C       32.20641647      36.69713964      11.14346663
C       32.50150641      38.16493659      10.72495990
C       24.36503026      40.88416117       8.62100879
C       24.44879423      36.36883729       8.31692096
C       24.35037087      37.96813725       8.28947686
C       25.77789088      38.67944521       8.42083884
C       25.59158731      40.08908735       9.09000664
C       26.95983402      40.81592309       8.64327425
C       26.98637473      42.25223774       9.16031620
C       28.26736403      43.07438759       8.56845285
C       23.14199982      31.22067539       9.11257956
C       24.47807943      31.89265013       8.63066642
C       24.58785931      33.36985964       9.16172510
C       25.85021341      34.15755262       8.73035887
C       25.73139713      35.77741995       9.03629317
C       27.01441505      36.39466603       8.49657876
C       27.06842060      37.88047221       8.98446698
C       28.35895989      38.63273130       8.55524487
C       28.17508851      40.00537577       9.22892522
C       29.52063415      40.87919833       9.29251395
C       29.61750625      42.26803186       8.56376423
C       30.90775210      43.09471087       9.13947060
C       30.84330593      44.54147956       8.43094113
C       32.19272627      45.37477493       8.39997991
C       27.17480815      33.27264425       9.29080659
C       28.50636236      34.11419116       9.17131980
C       28.23598666      35.65657004       9.05687692
C       29.54249881      36.40351685       8.49685790
C       29.61727050      37.84130036       9.06723623
C       30.92834664      38.54626642       8.56707448
C       30.88878643      40.12816696       8.61186200
C       32.13423107      40.80185529       9.26976657
C       32.17015413      42.30167004       8.71085198
C       33.47948352      43.00325456       9.18659756
C       33.32357199      44.65706920       9.16506011
C       30.87633143      35.78819319       8.96243906
C       32.22621104      36.47160591       8.55672106
C       32.28512691      37.97081298       9.14288222
C       33.57535328      38.63189644       8.63435259
C       33.62158480      40.11246212       9.13822733
F       24.37563841      31.75795897      12.57271956
F       24.54165091      38.90991871      12.57313965
F       26.53432527      40.53145527      12.57391287
F       28.31634944      42.36257502      12.58937071
F       30.00074746      44.23487161      12.70654417
F       23.76157593      34.25547154      12.57410229
F       26.07441258      37.42390976      12.54508336
F       28.80247032      40.01721155      12.85693956
F       30.82352917      41.75715692      12.67456826
F       32.43996874      43.65241230      12.61777380
F       34.34840542      45.56425198      12.55520014
F       26.03234147      33.35312939      12.71932190
F       26.74697290      35.38798931      12.64100240
F       28.33754104      37.07346341      12.48281315
F       30.17380530      38.20802851      12.78288758
F       31.94452006      39.44864805      12.70310041
F       33.51528011      41.28435484      12.61392318
F       30.44837448      34.87823169      12.45572381
F       32.13414987      36.65145524      12.51900163
F       24.42068266      40.88641604       7.24368860
F       24.44405143      36.07805441       6.98055002
F       24.01456158      38.30453869       7.00234323
F       26.12664090      38.84517823       7.09828251
F       27.07947772      40.89554951       7.27207679
F       27.99409836      43.25566876       7.24744437
F       24.45326574      31.89293511       7.25613446
F       25.92359063      34.17887087       7.35629918
F       26.98980312      36.40871686       7.11989001
F       28.53335392      38.74301219       7.19355308
F       29.80462352      42.11897728       7.22295283
F       30.42804044      44.41868490       7.12688634
F       32.43520326      45.48357180       7.06147937
F       29.44434640      36.31443247       7.12395391
F       30.95885106      38.22451668       7.22814794
F       30.96419277      40.35287008       7.26725082
F       32.15822882      42.29854640       7.33839523
F       32.34408950      36.45136800       7.18847474
F       33.55860573      38.57683872       7.26049501
C       25.72841103      42.95798338      11.21495269
C       26.02002265      49.83742047      11.25051672
C       26.52283115      51.21244707      10.67338973
C       27.87377323      51.69114355      11.21449469
C       28.16895781      53.18362555      10.72779823
C       29.57020206      53.54475942      11.22847927
C       29.81840300      55.06842682      10.83791676
C       31.24360624      55.39362958      11.34649311
C       24.93890131      45.38595840      11.21563473
C       25.21136275      46.83777112      10.62314635
C       26.77262910      47.22805045      10.58521616
C       27.14952195      48.71546331      11.21330156
C       28.50199237      49.17348791      10.55632874
C       29.00651990      50.72502253      10.70362427
C       30.29835057      51.02872596      11.53106636
C       30.73676908      52.38627075      10.83873663
C       32.08482136      52.91332283      11.30783322
C       32.31216382      54.36234345      10.76119328
C       33.79148194      54.78944253      11.25976952
C       34.23747032      56.14782125      10.69949254
C       35.64349263      56.65556929      11.19698279
C       24.35168518      42.45497551      10.67013090
C       26.00889549      44.42052397      10.73799864
C       27.42874123      44.78364863      11.40183475
C       27.85299764      46.33544020      11.31553846
C       29.28936282      46.76879687      10.67508882
C       29.62548846      48.18643438      11.13257874
C       31.02672021      48.64224166      10.59909025
C       31.40669543      49.86960698      11.52020502
C       32.88558306      50.44500578      11.39185702
C       33.19667009      51.93332752      10.82540986
C       34.61492244      52.37602751      11.26752737
C       34.90005210      53.83886674      10.72635581
C       30.30932956      45.55201924      10.70314012
C       31.76048286      46.01133576      11.08773788
C       32.11193595      47.38096936      10.52068904
C       33.48290657      47.86281968      11.15889641
C       33.77799651      49.33061663      10.74038968
C       25.64152035      52.04984121       8.63643857
C       25.72528433      47.53451733       8.33235074
C       25.62686096      49.13381729       8.30490664
C       27.05438098      49.84512525       8.43626862
C       26.86807740      51.25476739       9.10543642
C       28.23632411      51.98160313       8.65870403
C       28.26286483      53.41791778       9.17574598
C       29.54385413      54.24006763       8.58388263
C       24.41848991      42.38635543       9.12800934
C       25.75456953      43.05833017       8.64609619
C       25.86434940      44.53553969       9.17715487
C       27.12670351      45.32323266       8.74578865
C       27.00788723      46.94309999       9.05172295
C       28.29090514      47.56034607       8.51200854
C       28.34491070      49.04615225       8.99989676
C       29.63544998      49.79841135       8.57067465
C       29.45157860      51.17105581       9.24435499
C       30.79712424      52.04487837       9.30794373
C       30.89399634      53.43371190       8.57919401
C       32.18424219      54.26039091       9.15490037
C       32.11979603      55.70715960       8.44637091
C       33.46921636      56.54045497       8.41540969
C       28.45129824      44.43832429       9.30623637
C       29.78285246      45.27987120       9.18674957
C       29.51247676      46.82225008       9.07230670
C       30.81898890      47.56919689       8.51228767
C       30.89376060      49.00698040       9.08266601
C       32.20483674      49.71194646       8.58250425
C       32.16527653      51.29384700       8.62729178
C       33.41072117      51.96753533       9.28519635
C       33.44664423      53.46735008       8.72628175
C       34.75597361      54.16893460       9.20202734
C       34.60006208      55.82274924       9.18048989
C       32.15282153      46.95387323       8.97786884
C       33.50270114      47.63728595       8.57215084
C       33.56161700      49.13649302       9.15831200
C       34.85184337      49.79757648       8.64978236
C       34.89807489      51.27814216       9.15365711
F       25.65212850      42.92363901      12.58814934
F       25.81814101      50.07559875      12.58856943
F       27.81081536      51.69713531      12.58934265
F       29.59283954      53.52825506      12.60480049
F       31.27723756      55.40055165      12.72197394
F       25.03806603      45.42115158      12.58953207
F       27.35090268      48.58958980      12.56051314
F       30.07896041      51.18289159      12.87236933
F       32.10001927      52.92283696      12.68999804
F       33.71645883      54.81809234      12.63320357
F       35.62489551      56.72993202      12.57062992
F       27.30883156      44.51880943      12.73475168
F       28.02346300      46.55366935      12.65643218
F       29.61403113      48.23914345      12.49824293
F       31.45029540      49.37370855      12.79831736
F       33.22101016      50.61432809      12.71853019
F       34.79177021      52.45003488      12.62935296
F       31.72486457      46.04391173      12.47115359
F       33.41063997      47.81713528      12.53443140
F       25.69717276      52.05209608       7.25911837
F       25.72054153      47.24373445       6.99597980
F       25.29105168      49.47021873       7.01777301
F       27.40313099      50.01085827       7.11371228
F       28.35596781      52.06122955       7.28750656
F       29.27058846      54.42134880       7.26287415
F       25.72975583      43.05861515       7.27156424
F       27.20008073      45.34455091       7.37172896
F       28.26629322      47.57439690       7.13531979
F       29.80984401      49.90869223       7.20898286
F       31.08111362      53.28465732       7.23838261
F       31.70453053      55.58436494       7.14231612
F       33.71169336      56.64925184       7.07690915
F       30.72083650      47.48011251       7.13938369
F       32.23534115      49.39019672       7.24357772
F       32.24068287      51.51855012       7.28268060
F       33.43471892      53.46422644       7.35382501
F       33.62057959      47.61704804       7.20390452
F       34.83509582      49.74251876       7.27592478
C       27.00490113      54.12366342      11.23038247
C       27.29651275      61.00310052      11.26594650
C       27.79932124      62.37812711      10.68881951
C       29.15026332      62.85682359      11.22992447
C       29.44544790      64.34930559      10.74322801
C       30.84669215      64.71043946      11.24390905
C       31.09489309      66.23410686      10.85334653
C       32.52009634      66.55930962      11.36192288
C       26.21539140      56.55163844      11.23106450
C       26.48785285      58.00345116      10.63857613
C       28.04911919      58.39373049      10.60064594
C       28.42601204      59.88114335      11.22873133
C       29.77848247      60.33916795      10.57175851
C       30.28301000      61.89070257      10.71905405
C       31.57484067      62.19440600      11.54649614
C       32.01325918      63.55195079      10.85416641
C       33.36131145      64.07900287      11.32326300
C       33.58865391      65.52802349      10.77662306
C       35.06797203      65.95512257      11.27519930
C       35.51396041      67.31350129      10.71492232
C       36.91998272      67.82124933      11.21241257
C       25.62817527      53.62065555      10.68556068
C       27.28538559      55.58620401      10.75342842
C       28.70523133      55.94932867      11.41726453
C       29.12948774      57.50112024      11.33096824
C       30.56585292      57.93447691      10.69051860
C       30.90197856      59.35211442      11.14800852
C       32.30321031      59.80792170      10.61452003
C       32.68318552      61.03528702      11.53563480
C       34.16207315      61.61068582      11.40728680
C       34.47316019      63.09900756      10.84083963
C       35.89141253      63.54170755      11.28295715
C       36.17654220      65.00454678      10.74178559
C       31.58581965      56.71769928      10.71856989
C       33.03697296      57.17701580      11.10316766
C       33.38842604      58.54664940      10.53611882
C       34.75939666      59.02849972      11.17432619
C       35.05448660      60.49629667      10.75581946
C       26.91801045      63.21552125       8.65186835
C       27.00177442      58.70019737       8.34778051
C       26.90335106      60.29949733       8.32033641
C       28.33087107      61.01080529       8.45169840
C       28.14456750      62.42044743       9.12086620
C       29.51281421      63.14728317       8.67413381
C       29.53935493      64.58359782       9.19117575
C       30.82034422      65.40574767       8.59931241
C       25.69498001      53.55203547       9.14343912
C       27.03105963      54.22401021       8.66152597
C       27.14083950      55.70121973       9.19258465
C       28.40319360      56.48891270       8.76121843
C       28.28437732      58.10878003       9.06715273
C       29.56739524      58.72602611       8.52743832
C       29.62140079      60.21183229       9.01532654
C       30.91194008      60.96409139       8.58610443
C       30.72806870      62.33673585       9.25978477
C       32.07361434      63.21055841       9.32337351
C       32.17048644      64.59939194       8.59462379
C       33.46073229      65.42607095       9.17033015
C       33.39628613      66.87283964       8.46180069
C       34.74570646      67.70613501       8.43083947
C       29.72778834      55.60400433       9.32166615
C       31.05934256      56.44555124       9.20217935
C       30.78896686      57.98793012       9.08773648
C       32.09547900      58.73487693       8.52771745
C       32.17025070      60.17266044       9.09809579
C       33.48132683      60.87762650       8.59793403
C       33.44176662      62.45952704       8.64272156
C       34.68721127      63.13321537       9.30062613
C       34.72313433      64.63303012       8.74171153
C       36.03246371      65.33461464       9.21745711
C       35.87655218      66.98842928       9.19591967
C       33.42931163      58.11955327       8.99329862
C       34.77919123      58.80296599       8.58758061
C       34.83810710      60.30217306       9.17374178
C       36.12833347      60.96325652       8.66521214
C       36.17456499      62.44382220       9.16908688
F       26.92861860      54.08931905      12.60357912
F       27.09463110      61.24127879      12.60399921
F       29.08730546      62.86281535      12.60477243
F       30.86932963      64.69393510      12.62023027
F       32.55372765      66.56623169      12.73740372
F       26.31455613      56.58683162      12.60496185
F       28.62739277      59.75526984      12.57594291
F       31.35545051      62.34857163      12.88779911
F       33.37650936      64.08851700      12.70542781
F       34.99294893      65.98377238      12.64863335
F       36.90138561      67.89561206      12.58605970
F       28.58532166      55.68448947      12.75018146
F       29.29995310      57.71934939      12.67186196
F       30.89052123      59.40482349      12.51367271
F       32.72678550      60.53938859      12.81374714
F       34.49750025      61.78000813      12.73395997
F       36.06826031      63.61571492      12.64478274
F       33.00135467      57.20959177      12.48658337
F       34.68713007      58.98281532      12.54986118
F       26.97366285      63.21777612       7.27454815
F       26.99703162      58.40941449       7.01140958
F       26.56754177      60.63589877       7.03320278
F       28.67962109      61.17653831       7.12914206
F       29.63245791      63.22690959       7.30293634
F       30.54707856      65.58702884       7.27830392
F       27.00624593      54.22429519       7.28699401
F       28.47657082      56.51023095       7.38715874
F       29.54278331      58.74007694       7.15074957
F       31.08633411      61.07437227       7.22441263
F       32.35760371      64.45033736       7.25381239
F       32.98102063      66.75004498       7.15774590
F       34.98818345      67.81493188       7.09233893
F       31.99732659      58.64579255       7.15481347
F       33.51183125      60.55587676       7.25900750
F       33.51717296      62.68423016       7.29811038
F       34.71120902      64.62990648       7.36925479
F       34.89706969      58.78272808       7.21933430
F       36.11158592      60.90819880       7.29135456
C       28.28139122      65.28934346      11.24581225
C       28.57300284      72.16878056      11.28137628
C       29.07581134      73.54380715      10.70424929
C       30.42675342      74.02250363      11.24535424
C       30.72193800      75.51498563      10.75865778
C       32.12318225      75.87611950      11.25933883
C       32.37138319      77.39978690      10.86877631
C       33.79658643      77.72498966      11.37735266
C       27.49188150      67.71731848      11.24649428
C       27.76434294      69.16913120      10.65400590
C       29.32560929      69.55941053      10.61607572
C       29.70250214      71.04682339      11.24416111
C       31.05497257      71.50484799      10.58718829
C       31.55950009      73.05638261      10.73448383
C       32.85133076      73.36008604      11.56192592
C       33.28974928      74.71763083      10.86959619
C       34.63780155      75.24468291      11.33869278
C       34.86514401      76.69370353      10.79205283
C       36.34446213      77.12080261      11.29062907
C       36.79045051      78.47918133      10.73035209
C       38.19647282      78.98692937      11.22784235
C       26.90466537      64.78633559      10.70099046
C       28.56187568      66.75188405      10.76885820
C       29.98172142      67.11500871      11.43269431
C       30.40597783      68.66680028      11.34639801
C       31.84234301      69.10015695      10.70594838
C       32.17846865      70.51779446      11.16343830
C       33.57970040      70.97360174      10.62994981
C       33.95967562      72.20096706      11.55106457
C       35.43856325      72.77636586      11.42271658
C       35.74965028      74.26468760      10.85626941
C       37.16790263      74.70738759      11.29838693
C       37.45303230      76.17022682      10.75721536
C       32.86230975      67.88337933      10.73399967
C       34.31346305      68.34269584      11.11859744
C       34.66491614      69.71232944      10.55154860
C       36.03588676      70.19417976      11.18975597
C       36.33097670      71.66197671      10.77124923
C       28.19450054      74.38120129       8.66729813
C       28.27826452      69.86587741       8.36321029
C       28.17984116      71.46517737       8.33576619
C       29.60736117      72.17648533       8.46712818
C       29.42105759      73.58612747       9.13629597
C       30.78930430      74.31296321       8.68956358
C       30.81584502      75.74927786       9.20660553
C       32.09683432      76.57142771       8.61474219
C       26.97147010      64.71771551       9.15886889
C       28.30754972      65.38969025       8.67695575
C       28.41732959      66.86689977       9.20801443
C       29.67968370      67.65459274       8.77664820
C       29.56086742      69.27446007       9.08258250
C       30.84388534      69.89170615       8.54286809
C       30.89789089      71.37751233       9.03075631
C       32.18843018      72.12977143       8.60153421
C       32.00455880      73.50241589       9.27521455
C       33.35010444      74.37623845       9.33880328
C       33.44697654      75.76507198       8.61005356
C       34.73722238      76.59175099       9.18575993
C       34.67277622      78.03851968       8.47723047
C       36.02219656      78.87181505       8.44626925
C       31.00427844      66.76968437       9.33709593
C       32.33583265      67.61123128       9.21760913
C       32.06545695      69.15361016       9.10316626
C       33.37196910      69.90055697       8.54314723
C       33.44674079      71.33834048       9.11352557
C       34.75781693      72.04330654       8.61336381
C       34.71825672      73.62520708       8.65815133
C       35.96370136      74.29889541       9.31605591
C       35.99962442      75.79871016       8.75714131
C       37.30895381      76.50029468       9.23288689
C       37.15304228      78.15410932       9.21134944
C       34.70580172      69.28523331       9.00872839
C       36.05568133      69.96864603       8.60301039
C       36.11459719      71.46785310       9.18917155
C       37.40482356      72.12893656       8.68064192
C       37.45105509      73.60950224       9.18451666
F       28.20510869      65.25499909      12.61900889
F       28.37112120      72.40695883      12.61942899
F       30.36379555      74.02849539      12.62020220
F       32.14581973      75.85961514      12.63566005
F       33.83021775      77.73191173      12.75283350
F       27.59104622      67.75251166      12.62039163
F       29.90388287      70.92094988      12.59137269
F       32.63194061      73.51425167      12.90322889
F       34.65299946      75.25419704      12.72085759
F       36.26943902      77.14945242      12.66406313
F       38.17787570      79.06129210      12.60148947
F       29.86181175      66.85016951      12.76561123
F       30.57644319      68.88502943      12.68729173
F       32.16701132      70.57050353      12.52910248
F       34.00327559      71.70506863      12.82917691
F       35.77399035      72.94568817      12.74938974
F       37.34475040      74.78139497      12.66021252
F       34.27784476      68.37527181      12.50201315
F       35.96362016      70.14849536      12.56529096
F       28.25015295      74.38345616       7.28997793
F       28.27352172      69.57509453       7.02683935
F       27.84403187      71.80157881       7.04863256
F       29.95611119      72.34221835       7.14457184
F       30.90894801      74.39258963       7.31836612
F       31.82356865      76.75270888       7.29373370
F       28.28273602      65.38997523       7.30242379
F       29.75306092      67.67591099       7.40258851
F       30.81927341      69.90575698       7.16617934
F       32.36282421      72.24005231       7.23984241
F       33.63409381      75.61601740       7.26924217
F       34.25751073      77.91572502       7.17317567
F       36.26467355      78.98061192       7.10776871
F       33.27381669      69.81147259       7.17024325
F       34.78832134      71.72155680       7.27443728
F       34.79366306      73.84991020       7.31354016
F       35.98769911      75.79558652       7.38468457
F       36.17355979      69.94840812       7.23476407
F       37.38807602      72.07387884       7.30678434
C       29.55788132      76.45502350      11.26124202
C       29.84949294      83.33446060      11.29680606
C       30.35230144      84.70948719      10.71967906
C       31.70324352      85.18818367      11.26078402
C       31.99842809      86.68066567      10.77408756
C       33.39967234      87.04179954      11.27476861
C       33.64787328      88.56546694      10.88420609
C       35.07307653      88.89066970      11.39278244
C       28.76837160      78.88299852      11.26192406
C       29.04083304      80.33481124      10.66943568
C       30.60209938      80.72509057      10.63150550
C       30.97899223      82.21250343      11.25959089
C       32.33146266      82.67052803      10.60261807
C       32.83599019      84.22206265      10.74991361
C       34.12782086      84.52576608      11.57735570
C       34.56623937      85.88331087      10.88502597
C       35.91429165      86.41036295      11.35412256
C       36.14163411      87.85938357      10.80748261
C       37.62095222      88.28648265      11.30605885
C       38.06694060      89.64486137      10.74578187
C       39.47296292      90.15260941      11.24327213
C       28.18115546      75.95201563      10.71642024
C       29.83836578      77.91756409      10.78428798
C       31.25821152      78.28068875      11.44812409
C       31.68246793      79.83248032      11.36182779
C       33.11883311      80.26583699      10.72137815
C       33.45495875      81.68347450      11.17886808
C       34.85619050      82.13928178      10.64537959
C       35.23616571      83.36664710      11.56649435
C       36.71505334      83.94204590      11.43814636
C       37.02614038      85.43036764      10.87169919
C       38.44439272      85.87306763      11.31381671
C       38.72952239      87.33590686      10.77264514
C       34.13879984      79.04905937      10.74942945
C       35.58995315      79.50837588      11.13402722
C       35.94140623      80.87800948      10.56697838
C       37.31237685      81.35985980      11.20518574
C       37.60746680      82.82765675      10.78667901
C       29.47099064      85.54688133       8.68272790
C       29.55475462      81.03155745       8.37864007
C       29.45633125      82.63085741       8.35119597
C       30.88385126      83.34216537       8.48255795
C       30.69754769      84.75180751       9.15172575
C       32.06579440      85.47864325       8.70499336
C       32.09233512      86.91495790       9.22203531
C       33.37332442      87.73710775       8.63017196
C       28.24796020      75.88339555       9.17429867
C       29.58403982      76.55537029       8.69238553
C       29.69381969      78.03257981       9.22344421
C       30.95617379      78.82027278       8.79207798
C       30.83735752      80.44014011       9.09801228
C       32.12037543      81.05738619       8.55829787
C       32.17438098      82.54319237       9.04618609
C       33.46492027      83.29545147       8.61696399
C       33.28104889      84.66809593       9.29064433
C       34.62659453      85.54191849       9.35423306
C       34.72346663      86.93075202       8.62548334
C       36.01371248      87.75743103       9.20118971
C       35.94926632      89.20419972       8.49266025
C       37.29868665      90.03749509       8.46169902
C       32.28076853      77.93536441       9.35252570
C       33.61232275      78.77691132       9.23303891
C       33.34194705      80.31929020       9.11859603
C       34.64845919      81.06623701       8.55857701
C       34.72323089      82.50402052       9.12895534
C       36.03430702      83.20898658       8.62879359
C       35.99474682      84.79088712       8.67358111
C       37.24019146      85.46457545       9.33148569
C       37.27611452      86.96439020       8.77257109
C       38.58544390      87.66597472       9.24831667
C       38.42953237      89.31978936       9.22677922
C       35.98229182      80.45091335       9.02415817
C       37.33217142      81.13432607       8.61844017
C       37.39108729      82.63353314       9.20460133
C       38.68131366      83.29461660       8.69607170
C       38.72754518      84.77518228       9.19994644
F       29.48159879      76.42067913      12.63443867
F       29.64761129      83.57263887      12.63485877
F       31.64028565      85.19417543      12.63563198
F       33.42230982      87.02529518      12.65108982
F       35.10670784      88.89759177      12.76826328
F       28.86753632      78.91819170      12.63582140
F       31.18037296      82.08662992      12.60680247
F       33.90843070      84.67993171      12.91865867
F       35.92948956      86.41987708      12.73628737
F       37.54592912      88.31513246      12.67949291
F       39.45436580      90.22697214      12.61691925
F       31.13830185      78.01584955      12.78104101
F       31.85293329      80.05070947      12.70272151
F       33.44350142      81.73618357      12.54453226
F       35.27976569      82.87074867      12.84460669
F       37.05048044      84.11136821      12.76481952
F       38.62124050      85.94707501      12.67564229
F       35.55433486      79.54095185      12.51744292
F       37.24011026      81.31417540      12.58072074
F       29.52664304      85.54913620       7.30540771
F       29.55001182      80.74077457       7.04226913
F       29.12052197      82.96725885       7.06406234
F       31.23260128      83.50789839       7.16000162
F       32.18543810      85.55826967       7.33379590
F       33.10005875      87.91838892       7.30916348
F       29.55922612      76.55565527       7.31785357
F       31.02955101      78.84159103       7.41801829
F       32.09576350      81.07143702       7.18160912
F       33.63931430      83.40573235       7.25527219
F       34.91058390      86.78169744       7.28467194
F       35.53400082      89.08140506       7.18860545
F       37.54116365      90.14629196       7.12319849
F       34.55030678      80.97715263       7.18567302
F       36.06481144      82.88723684       7.28986705
F       36.07015316      85.01559024       7.32896993
F       37.26418921      86.96126656       7.40011434
F       37.45004988      81.11408816       7.25019385
F       38.66456611      83.23955888       7.32221412
C       32.18794711      13.91832189      11.16812471
C       32.47955872      20.79775898      11.20368874
C       32.98236722      22.17278558      10.62656175
C       34.33330930      22.65148205      11.16766671
C       34.62849388      24.14396406      10.68097025
C       36.02973813      24.50509793      11.18165130
C       36.27793907      26.02876532      10.79108878
C       37.70314231      26.35396808      11.29966513
C       31.39843738      16.34629690      11.16880675
C       31.67089882      17.79810962      10.57631837
C       33.23216517      18.18838896      10.53838819
C       33.60905802      19.67580181      11.16647358
C       34.96152845      20.13382641      10.50950076
C       35.46605598      21.68536103      10.65679630
C       36.75788665      21.98906447      11.48423839
C       37.19630516      23.34660926      10.79190866
C       38.54435743      23.87366133      11.26100525
C       38.77169989      25.32268195      10.71436530
C       40.25101801      25.74978103      11.21294154
C       40.69700639      27.10815976      10.65266456
C       42.10302870      27.61590780      11.15015482
C       30.81122125      13.41531401      10.62330293
C       32.46843157      15.38086247      10.69117066
C       33.88827731      15.74398714      11.35500678
C       34.31253372      17.29577870      11.26871048
C       35.74889890      17.72913537      10.62826084
C       36.08502453      19.14677288      11.08575076
C       37.48625629      19.60258017      10.55226228
C       37.86623150      20.82994549      11.47337704
C       39.34511913      21.40534428      11.34502905
C       39.65620617      22.89366602      10.77858188
C       41.07445851      23.33636602      11.22069940
C       41.35958818      24.79920525      10.67952783
C       36.76886563      16.51235775      10.65631214
C       38.22001894      16.97167426      11.04090991
C       38.57147202      18.34130786      10.47386107
C       39.94244264      18.82315819      11.11206843
C       40.23753258      20.29095513      10.69356170
C       32.10105643      23.01017972       8.58961059
C       32.18482040      18.49485584       8.28552276
C       32.08639704      20.09415579       8.25807866
C       33.51391705      20.80546375       8.38944064
C       33.32761348      22.21510589       9.05860844
C       34.69586019      22.94194163       8.61187605
C       34.72240090      24.37825628       9.12891800
C       36.00339020      25.20040614       8.53705465
C       30.87802599      13.34669393       9.08118136
C       32.21410560      14.01866867       8.59926822
C       32.32388548      15.49587819       9.13032690
C       33.58623958      16.28357117       8.69896067
C       33.46742330      17.90343849       9.00489497
C       34.75044122      18.52068458       8.46518056
C       34.80444677      20.00649075       8.95306878
C       36.09498606      20.75874985       8.52384667
C       35.91111468      22.13139431       9.19752702
C       37.25666032      23.00521687       9.26111575
C       37.35353242      24.39405040       8.53236603
C       38.64377827      25.22072942       9.10807240
C       38.57933211      26.66749810       8.39954294
C       39.92875244      27.50079348       8.36858171
C       34.91083432      15.39866279       9.25940839
C       36.24238854      16.24020971       9.13992160
C       35.97201283      17.78258859       9.02547872
C       37.27852498      18.52953540       8.46545970
C       37.35329667      19.96731891       9.03583803
C       38.66437281      20.67228496       8.53567628
C       38.62481260      22.25418551       8.58046380
C       39.87025725      22.92787384       9.23836838
C       39.90618031      24.42768858       8.67945378
C       41.21550969      25.12927310       9.15519936
C       41.05959816      26.78308774       9.13366191
C       38.61235761      17.91421173       8.93104086
C       39.96223721      18.59762445       8.52532286
C       40.02115308      20.09683153       9.11148402
C       41.31137945      20.75791498       8.60295439
C       41.35761097      22.23848066       9.10682913
F       32.11166458      13.88397752      12.54132136
F       32.27767708      21.03593726      12.54174146
F       34.27035144      22.65747381      12.54251467
F       36.05237561      24.48859356      12.55797251
F       37.73677363      26.36089015      12.67514597
F       31.49760210      16.38149008      12.54270409
F       33.81043875      19.54992830      12.51368516
F       36.53849649      22.14323009      12.82554136
F       38.55955534      23.88317546      12.64317006
F       40.17599491      25.77843084      12.58637560
F       42.08443159      27.69027052      12.52380194
F       33.76836764      15.47914794      12.68792370
F       34.48299908      17.51400785      12.60960420
F       36.07356721      19.19948195      12.45141495
F       37.90983148      20.33404705      12.75148938
F       39.68054623      21.57466659      12.67170221
F       41.25130628      23.41037339      12.58252498
F       38.18440065      17.00425023      12.42432561
F       39.87017604      18.77747378      12.48760343
F       32.15670883      23.01243459       7.21229040
F       32.18007760      18.20407296       6.94915182
F       31.75058775      20.43055723       6.97094503
F       33.86266707      20.97119678       7.06688431
F       34.81550389      23.02156805       7.24067859
F       35.73012454      25.38168731       7.21604617
F       32.18929191      14.01895365       7.22473626
F       33.65961680      16.30488942       7.32490098
F       34.72582929      18.53473540       7.08849181
F       36.26938009      20.86903073       7.16215488
F       37.54064969      24.24499582       7.19155463
F       38.16406661      26.54470344       7.09548814
F       40.17122943      27.60959035       7.03008117
F       37.18037257      18.44045102       7.09255571
F       38.69487723      20.35053522       7.19674974
F       38.70021894      22.47888862       7.23585262
F       39.89425499      24.42456494       7.30699703
F       40.08011567      18.57738655       7.15707654
F       41.29463190      20.70285726       7.22909681
C       33.46443720      25.08400193      11.18355449
C       33.75604882      31.96343902      11.21911852
C       34.25885732      33.33846562      10.64199153
C       35.60979940      33.81716209      11.18309649
C       35.90498398      35.30964410      10.69640003
C       37.30622823      35.67077797      11.19708108
C       37.55442917      37.19444536      10.80651856
C       38.97963241      37.51964812      11.31509491
C       32.67492748      27.51197694      11.18423653
C       32.94738892      28.96378966      10.59174815
C       34.50865527      29.35406900      10.55381796
C       34.88554812      30.84148185      11.18190336
C       36.23801855      31.29950645      10.52493054
C       36.74254607      32.85104107      10.67222608
C       38.03437674      33.15474451      11.49966817
C       38.47279525      34.51228930      10.80733844
C       39.82084753      35.03934137      11.27643502
C       40.04818999      36.48836199      10.72979508
C       41.52750811      36.91546107      11.22837132
C       41.97349649      38.27383980      10.66809434
C       43.37951880      38.78158784      11.16558460
C       32.08771135      24.58099405      10.63873270
C       33.74492166      26.54654251      10.70660044
C       35.16476740      26.90966718      11.37043656
C       35.58902381      28.46145874      11.28414026
C       37.02538899      28.89481541      10.64369062
C       37.36151463      30.31245292      11.10118054
C       38.76274638      30.76826021      10.56769205
C       39.14272160      31.99562553      11.48880682
C       40.62160923      32.57102432      11.36045883
C       40.93269626      34.05934606      10.79401166
C       42.35094861      34.50204606      11.23612917
C       42.63607827      35.96488529      10.69495761
C       38.04535573      27.67803779      10.67174192
C       39.49650903      28.13735430      11.05633968
C       39.84796212      29.50698790      10.48929084
C       41.21893274      29.98883823      11.12749821
C       41.51402268      31.45663517      10.70899148
C       33.37754652      34.17585976       8.60504037
C       33.46131050      29.66053588       8.30095254
C       33.36288713      31.25983583       8.27350844
C       34.79040715      31.97114379       8.40487042
C       34.60410357      33.38078593       9.07403822
C       35.97235028      34.10762167       8.62730583
C       35.99889100      35.54393632       9.14434778
C       37.27988030      36.36608618       8.55248443
C       32.15451608      24.51237397       9.09661114
C       33.49059570      25.18434871       8.61469800
C       33.60037557      26.66155823       9.14575668
C       34.86272968      27.44925121       8.71439045
C       34.74391340      29.06911853       9.02032475
C       36.02693131      29.68636462       8.48061034
C       36.08093687      31.17217079       8.96849856
C       37.37147616      31.92442989       8.53927645
C       37.18760478      33.29707435       9.21295680
C       38.53315042      34.17089691       9.27654553
C       38.63002252      35.55973044       8.54779581
C       39.92026836      36.38640946       9.12350217
C       39.85582220      37.83317814       8.41497271
C       41.20524253      38.66647352       8.38401149
C       36.18732442      26.56434283       9.27483817
C       37.51887863      27.40588975       9.15535137
C       37.24850293      28.94826863       9.04090850
C       38.55501508      29.69521544       8.48088948
C       38.62978677      31.13299895       9.05126781
C       39.94086291      31.83796500       8.55110605
C       39.90130270      33.41986555       8.59589358
C       41.14674734      34.09355388       9.25379815
C       41.18267040      35.59336862       8.69488356
C       42.49199978      36.29495314       9.17062914
C       42.33608826      37.94876778       9.14909169
C       39.88884770      29.07989177       8.94647064
C       41.23872731      29.76330449       8.54075264
C       41.29764317      31.26251157       9.12691380
C       42.58786954      31.92359502       8.61838416
C       42.63410106      33.40416070       9.12225891
F       33.38815467      25.04965756      12.55675114
F       33.55416718      32.20161730      12.55717123
F       35.54684153      33.82315385      12.55794445
F       37.32886571      35.65427360      12.57340229
F       39.01326373      37.52657019      12.69057575
F       32.77409220      27.54717012      12.55813387
F       35.08692885      30.71560834      12.52911494
F       37.81498659      33.30891013      12.84097113
F       39.83604544      35.04885550      12.65859984
F       41.45248500      36.94411088      12.60180538
F       43.36092168      38.85595056      12.53923172
F       35.04485773      26.64482798      12.70335348
F       35.75948917      28.67968789      12.62503398
F       37.35005730      30.36516199      12.46684473
F       39.18632157      31.49972709      12.76691916
F       40.95703633      32.74034663      12.68713199
F       42.52779638      34.57605343      12.59795476
F       39.46089074      28.16993027      12.43975539
F       41.14666614      29.94315382      12.50303320
F       33.43319893      34.17811463       7.22772017
F       33.45656770      29.36975300       6.96458160
F       33.02707785      31.59623727       6.98637481
F       35.13915716      32.13687682       7.08231408
F       36.09199399      34.18724809       7.25610836
F       37.00661463      36.54736735       7.23147595
F       33.46578200      25.18463369       7.24016604
F       34.93610690      27.47056946       7.34033076
F       36.00231939      29.70041544       7.10392159
F       37.54587018      32.03471077       7.17758466
F       38.81713979      35.41067586       7.20698441
F       39.44055671      37.71038348       7.11091792
F       41.44771953      38.77527039       7.04551095
F       38.45686267      29.60613106       7.10798549
F       39.97136732      31.51621526       7.21217952
F       39.97670904      33.64456866       7.25128240
F       41.17074509      35.59024498       7.32242681
F       41.35660577      29.74306659       7.17250632
F       42.57112199      31.86853730       7.24452659
C       34.74092730      36.24968197      11.19898427
C       35.03253892      43.12911906      11.23454830
C       35.53534741      44.50414566      10.65742131
C       36.88628949      44.98284213      11.19852627
C       37.18147407      46.47532414      10.71182981
C       38.58271832      46.83645801      11.21251085
C       38.83091926      48.36012540      10.82194833
C       40.25612251      48.68532816      11.33052468
C       33.95141758      38.67765698      11.19966631
C       34.22387902      40.12946970      10.60717793
C       35.78514536      40.51974904      10.56924774
C       36.16203821      42.00716189      11.19733314
C       37.51450864      42.46518649      10.54036032
C       38.01903617      44.01672111      10.68765585
C       39.31086684      44.32042455      11.51509794
C       39.74928535      45.67796934      10.82276821
C       41.09733762      46.20502141      11.29186480
C       41.32468009      47.65404203      10.74522486
C       42.80399820      48.08114111      11.24380110
C       43.24998658      49.43951984      10.68352412
C       44.65600889      49.94726788      11.18101437
C       33.36420144      35.74667410      10.65416248
C       35.02141176      37.71222255      10.72203022
C       36.44125750      38.07534722      11.38586633
C       36.86551391      39.62713878      11.29957004
C       38.30187909      40.06049545      10.65912040
C       38.63800473      41.47813296      11.11661032
C       40.03923648      41.93394025      10.58312183
C       40.41921169      43.16130557      11.50423660
C       41.89809932      43.73670436      11.37588860
C       42.20918636      45.22502610      10.80944144
C       43.62743870      45.66772610      11.25155895
C       43.91256837      47.13056533      10.71038739
C       39.32184582      38.84371783      10.68717170
C       40.77299913      39.30303434      11.07176946
C       41.12445221      40.67266794      10.50472062
C       42.49542283      41.15451827      11.14292799
C       42.79051277      42.62231521      10.72442126
C       34.65403662      45.34153980       8.62047015
C       34.73780060      40.82621592       8.31638231
C       34.63937723      42.42551587       8.28893821
C       36.06689724      43.13682383       8.42030020
C       35.88059367      44.54646597       9.08946800
C       37.24884038      45.27330171       8.64273561
C       37.27538110      46.70961636       9.15977755
C       38.55637039      47.53176622       8.56791421
C       33.43100618      35.67805401       9.11204092
C       34.76708580      36.35002875       8.63012777
C       34.87686567      37.82723827       9.16118645
C       36.13921977      38.61493125       8.72982023
C       36.02040350      40.23479857       9.03575453
C       37.30342141      40.85204466       8.49604012
C       37.35742696      42.33785083       8.98392834
C       38.64796625      43.09010993       8.55470623
C       38.46409487      44.46275439       9.22838657
C       39.80964051      45.33657695       9.29197531
C       39.90651261      46.72541048       8.56322559
C       41.19675846      47.55208950       9.13893195
C       41.13231230      48.99885818       8.43040249
C       42.48173263      49.83215356       8.39944127
C       37.46381451      37.73002287       9.29026795
C       38.79536873      38.57156979       9.17078115
C       38.52499303      40.11394867       9.05633828
C       39.83150517      40.86089548       8.49631925
C       39.90627687      42.29867899       9.06669759
C       41.21735300      43.00364504       8.56653583
C       41.17779280      44.58554559       8.61132336
C       42.42323744      45.25923392       9.26922793
C       42.45916050      46.75904866       8.71031333
C       43.76848988      47.46063318       9.18605892
C       43.61257835      49.11444782       9.16452147
C       41.16533780      40.24557181       8.96190042
C       42.51521740      40.92898453       8.55618242
C       42.57413327      42.42819161       9.14234358
C       43.86435964      43.08927506       8.63381394
C       43.91059116      44.56984074       9.13768868
F       34.66464477      36.21533760      12.57218092
F       34.83065727      43.36729734      12.57260101
F       36.82333163      44.98883389      12.57337423
F       38.60535580      46.81995364      12.58883207
F       40.28975382      48.69225023      12.70600552
F       34.05058230      38.71285016      12.57356365
F       36.36341894      41.88128838      12.54454472
F       39.09147668      44.47459017      12.85640091
F       41.11253554      46.21453554      12.67402961
F       42.72897510      48.10979092      12.61723515
F       44.63741178      50.02163060      12.55466150
F       36.32134783      37.81050802      12.71878326
F       37.03597927      39.84536793      12.64046376
F       38.62654740      41.53084203      12.48227451
F       40.46281167      42.66540713      12.78234894
F       42.23352642      43.90602667      12.70256177
F       43.80428648      45.74173347      12.61338454
F       40.73738084      39.33561031      12.45518517
F       42.42315624      41.10883386      12.51846298
F       34.70968902      45.34379467       7.24314995
F       34.73305780      40.53543304       6.98001138
F       34.30356795      42.76191731       7.00180459
F       36.41564726      43.30255686       7.09774386
F       37.36848408      45.35292813       7.27153814
F       38.28310473      47.71304739       7.24690573
F       34.74227210      36.35031373       7.25559581
F       36.21259699      38.63624950       7.35576054
F       37.27880948      40.86609548       7.11935137
F       38.82236028      43.20039081       7.19301444
F       40.09362988      46.57635590       7.22241419
F       40.71704680      48.87606352       7.12634770
F       42.72420963      49.94095043       7.06094073
F       39.73335276      40.77181110       7.12341527
F       41.24785742      42.68189530       7.22760930
F       41.25319913      44.81024870       7.26671218
F       42.44723519      46.75592502       7.33785659
F       42.63309586      40.90874663       7.18793610
F       43.84761209      43.03421734       7.25995636
C       36.01741740      47.41536201      11.21441405
C       36.30902901      54.29479910      11.24997808
C       36.81183751      55.66982570      10.67285109
C       38.16277959      56.14852217      11.21395605
C       38.45796417      57.64100418      10.72725959
C       39.85920842      58.00213805      11.22794063
C       40.10740936      59.52580544      10.83737811
C       41.53261260      59.85100820      11.34595446
C       35.22790767      49.84333702      11.21509608
C       35.50036911      51.29514974      10.62260771
C       37.06163546      51.68542908      10.58467752
C       37.43852831      53.17284193      11.21276291
C       38.79099874      53.63086653      10.55579009
C       39.29552626      55.18240115      10.70308563
C       40.58735693      55.48610459      11.53052772
C       41.02577545      56.84364938      10.83819799
C       42.37382772      57.37070145      11.30729458
C       42.60117018      58.81972207      10.76065464
C       44.08048830      59.24682115      11.25923088
C       44.52647668      60.60519988      10.69895390
C       45.93249899      61.11294792      11.19644415
C       34.64069154      46.91235414      10.66959226
C       36.29790185      48.87790259      10.73746000
C       37.71774760      49.24102726      11.40129611
C       38.14200400      50.79281882      11.31499982
C       39.57836918      51.22617549      10.67455018
C       39.91449482      52.64381300      11.13204010
C       41.31572658      53.09962029      10.59855161
C       41.69570179      54.32698561      11.51966637
C       43.17458942      54.90238440      11.39131838
C       43.48567645      56.39070614      10.82487121
C       44.90392880      56.83340614      11.26698873
C       45.18905847      58.29624537      10.72581717
C       40.59833592      50.00939787      10.70260147
C       42.04948922      50.46871438      11.08719924
C       42.40094231      51.83834798      10.52015040
C       43.77191293      52.32019831      11.15835777
C       44.06700287      53.78799525      10.73985104
C       35.93052672      56.50721984       8.63589993
C       36.01429069      51.99189596       8.33181209
C       35.91586733      53.59119591       8.30436799
C       37.34338734      54.30250387       8.43572998
C       37.15708376      55.71214601       9.10489778
C       38.52533047      56.43898175       8.65816539
C       38.55187119      57.87529640       9.17520733
C       39.83286049      58.69744626       8.58334399
C       34.70749627      46.84373405       9.12747070
C       36.04357589      47.51570879       8.64555755
C       36.15335576      48.99291831       9.17661623
C       37.41570987      49.78061129       8.74525000
C       37.29689359      51.40047861       9.05118430
C       38.57991151      52.01772470       8.51146990
C       38.63391706      53.50353087       8.99935811
C       39.92445635      54.25578997       8.57013601
C       39.74058497      55.62843443       9.24381635
C       41.08613061      56.50225699       9.30740509
C       41.18300271      57.89109052       8.57865536
C       42.47324855      58.71776954       9.15436173
C       42.40880239      60.16453822       8.44583227
C       43.75822273      60.99783360       8.41487105
C       38.74030461      48.89570291       9.30569773
C       40.07185882      49.73724983       9.18621093
C       39.80148312      51.27962871       9.07176806
C       41.10799527      52.02657552       8.51174903
C       41.18276696      53.46435903       9.08212737
C       42.49384310      54.16932508       8.58196561
C       42.45428289      55.75122563       8.62675313
C       43.69972753      56.42491396       9.28465771
C       43.73565059      57.92472870       8.72574311
C       45.04497998      58.62631322       9.20148869
C       44.88906845      60.28012786       9.17995124
C       42.44182789      51.41125185       8.97733019
C       43.79170750      52.09466457       8.57161219
C       43.85062336      53.59387165       9.15777335
C       45.14084973      54.25495510       8.64924372
C       45.18708126      55.73552078       9.15311846
F       35.94113487      47.38101764      12.58761069
F       36.10714737      54.53297738      12.58803079
F       38.09982172      56.15451393      12.58880400
F       39.88184590      57.98563368      12.60426185
F       41.56624392      59.85793027      12.72143530
F       35.32707239      49.87853020      12.58899343
F       37.63990904      53.04696842      12.55997449
F       40.36796678      55.64027021      12.87183069
F       42.38902563      57.38021558      12.68945939
F       44.00546520      59.27547097      12.63266493
F       45.91390187      61.18731064      12.57009127
F       37.59783792      48.97618806      12.73421304
F       38.31246936      51.01104797      12.65589353
F       39.90303749      52.69652207      12.49770429
F       41.73930176      53.83108717      12.79777872
F       43.51001652      55.07170671      12.71799154
F       45.08077657      56.90741351      12.62881432
F       42.01387093      50.50129035      12.47061495
F       43.69964633      52.27451390      12.53389276
F       35.98617912      56.50947471       7.25857973
F       36.00954789      51.70111308       6.99544115
F       35.58005804      53.92759735       7.01723436
F       37.69213736      54.46823690       7.11317364
F       38.64497418      56.51860817       7.28696792
F       39.55959482      58.87872743       7.26233550
F       36.01876219      47.51599377       7.27102559
F       37.48908709      49.80192954       7.37119032
F       38.55529958      52.03177552       7.13478115
F       40.09885038      54.36607085       7.20844421
F       41.37011998      57.74203594       7.23784397
F       41.99353690      60.04174356       7.14177748
F       44.00069972      61.10663047       7.07637051
F       41.00984286      51.93749114       7.13884505
F       42.52434751      53.84757534       7.24303908
F       42.52968923      55.97592874       7.28214196
F       43.72372528      57.92160506       7.35328637
F       43.90958596      52.07442667       7.20336588
F       45.12410219      54.19989738       7.27538614
C       37.29390749      58.58104205      11.22984382
C       37.58551911      65.46047914      11.26540786
C       38.08832761      66.83550574      10.68828087
C       39.43926969      67.31420221      11.22938582
C       39.73445426      68.80668422      10.74268936
C       41.13569851      69.16781809      11.24337041
C       41.38389945      70.69148548      10.85280789
C       42.80910270      71.01668824      11.36138424
C       36.50439777      61.00901706      11.23052586
C       36.77685921      62.46082978      10.63803748
C       38.33812555      62.85110912      10.60010730
C       38.71501840      64.33852197      11.22819269
C       40.06748883      64.79654657      10.57121987
C       40.57201636      66.34808119      10.71851541
C       41.86384703      66.65178463      11.54595750
C       42.30226554      68.00932942      10.85362777
C       43.65031782      68.53638149      11.32272436
C       43.87766028      69.98540211      10.77608441
C       45.35697839      70.41250119      11.27466065
C       45.80296678      71.77087992      10.71438367
C       47.20898909      72.27862796      11.21187393
C       35.91718164      58.07803418      10.68502204
C       37.57439195      60.04358263      10.75288978
C       38.99423769      60.40670730      11.41672589
C       39.41849410      61.95849886      11.33042959
C       40.85485928      62.39185553      10.68997995
C       41.19098492      63.80949304      11.14746988
C       42.59221667      64.26530033      10.61398139
C       42.97219188      65.49266565      11.53509615
C       44.45107952      66.06806444      11.40674816
C       44.76216655      67.55638618      10.84030099
C       46.18041890      67.99908618      11.28241851
C       46.46554856      69.46192541      10.74124694
C       41.87482601      61.17507791      10.71803125
C       43.32597932      61.63439442      11.10262902
C       43.67743240      63.00402802      10.53558018
C       45.04840302      63.48587835      11.17378754
C       45.34349297      64.95367529      10.75528081
C       37.20701681      67.67289988       8.65132970
C       37.29078079      63.15757600       8.34724187
C       37.19235742      64.75687595       8.31979777
C       38.61987743      65.46818391       8.45115975
C       38.43357386      66.87782605       9.12032755
C       39.80182057      67.60466179       8.67359516
C       39.82836129      69.04097644       9.19063711
C       41.10935059      69.86312630       8.59877377
C       35.98398637      58.00941409       9.14290047
C       37.32006599      58.68138883       8.66098733
C       37.42984586      60.15859835       9.19204601
C       38.69219996      60.94629133       8.76067978
C       38.57338369      62.56615865       9.06661408
C       39.85640160      63.18340474       8.52689967
C       39.91040715      64.66921091       9.01478789
C       41.20094644      65.42147001       8.58556579
C       41.01707506      66.79411447       9.25924613
C       42.36262070      67.66793703       9.32283486
C       42.45949280      69.05677056       8.59408514
C       43.74973865      69.88344958       9.16979151
C       43.68529249      71.33021826       8.46126205
C       45.03471282      72.16351364       8.43030083
C       40.01679470      60.06138295       9.32112751
C       41.34834892      60.90292987       9.20164071
C       41.07797322      62.44530875       9.08719784
C       42.38448536      63.19225556       8.52717881
C       42.45925706      64.63003907       9.09755714
C       43.77033319      65.33500512       8.59739539
C       43.73077299      66.91690567       8.64218291
C       44.97621763      67.59059400       9.30008749
C       45.01214069      69.09040874       8.74117289
C       46.32147007      69.79199326       9.21691847
C       46.16555854      71.44580790       9.19538102
C       43.71831799      62.57693189       8.99275997
C       45.06819759      63.26034461       8.58704197
C       45.12711346      64.75955169       9.17320313
C       46.41733983      65.42063514       8.66467350
C       46.46357135      66.90120082       9.16854824
F       37.21762496      58.54669768      12.60304047
F       37.38363746      65.69865742      12.60346057
F       39.37631182      67.32019397      12.60423378
F       41.15833600      69.15131372      12.61969162
F       42.84273401      71.02361031      12.73686508
F       36.60356249      61.04421024      12.60442321
F       38.91639913      64.21264846      12.57540427
F       41.64445687      66.80595025      12.88726047
F       43.66551573      68.54589562      12.70488917
F       45.28195529      70.44115101      12.64809471
F       47.19039197      72.35299068      12.58552105
F       38.87432802      60.14186810      12.74964281
F       39.58895946      62.17672801      12.67132331
F       41.17952759      63.86220211      12.51313406
F       43.01579186      64.99676721      12.81320849
F       44.78650661      66.23738675      12.73342132
F       46.35726667      68.07309355      12.64424410
F       43.29036103      61.66697039      12.48604473
F       44.97613643      63.44019394      12.54932254
F       37.26266921      67.67515475       7.27400951
F       37.28603799      62.86679312       7.01087093
F       36.85654814      65.09327739       7.03266414
F       38.96862745      65.63391694       7.12860342
F       39.92146427      67.68428821       7.30239770
F       40.83608492      70.04440747       7.27776528
F       37.29525229      58.68167381       7.28645537
F       38.76557718      60.96760958       7.38662009
F       39.83178967      63.19745556       7.15021092
F       41.37534047      65.53175089       7.22387399
F       42.64661007      68.90771598       7.25327375
F       43.27002699      71.20742360       7.15720725
F       45.27718982      72.27231051       7.09180029
F       42.28633295      63.10317118       7.15427482
F       43.80083761      65.01325538       7.25846886
F       43.80617933      67.14160878       7.29757174
F       45.00021538      69.08728510       7.36871615
F       45.18607605      63.24010671       7.21879565
F       46.40059228      65.36557742       7.29081592
C       38.57039759      69.74672209      11.24527360
C       38.86200920      76.62615918      11.28083763
C       39.36481770      78.00118578      10.70371064
C       40.71575978      78.47988225      11.24481560
C       41.01094436      79.97236426      10.75811914
C       42.41218861      80.33349813      11.25880019
C       42.66038955      81.85716552      10.86823767
C       44.08559279      82.18236828      11.37681402
C       37.78088786      72.17469710      11.24595564
C       38.05334930      73.62650982      10.65346726
C       39.61461565      74.01678916      10.61553708
C       39.99150850      75.50420201      11.24362247
C       41.34397893      75.96222661      10.58664965
C       41.84850645      77.51376123      10.73394519
C       43.14033713      77.81746467      11.56138728
C       43.57875564      79.17500946      10.86905755
C       44.92680791      79.70206153      11.33815413
C       45.15415037      81.15108215      10.79151419
C       46.63346849      81.57818123      11.29009043
C       47.07945687      82.93655996      10.72981345
C       48.48547918      83.44430800      11.22730371
C       37.19367173      69.24371422      10.70045182
C       38.85088205      71.20926267      10.76831955
C       40.27072779      71.57238734      11.43215567
C       40.69498419      73.12417890      11.34585937
C       42.13134937      73.55753557      10.70540973
C       42.46747501      74.97517308      11.16289965
C       43.86870677      75.43098037      10.62941117
C       44.24868198      76.65834569      11.55052593
C       45.72756961      77.23374448      11.42217794
C       46.03865665      78.72206622      10.85573077
C       47.45690899      79.16476622      11.29784829
C       47.74203866      80.62760545      10.75667672
C       43.15131611      72.34075795      10.73346103
C       44.60246942      72.80007446      11.11805880
C       44.95392250      74.16970806      10.55100996
C       46.32489312      74.65155839      11.18921732
C       46.61998306      76.11935533      10.77071059
C       38.48350691      78.83857992       8.66675948
C       38.56727088      74.32325604       8.36267165
C       38.46884752      75.92255599       8.33522755
C       39.89636753      76.63386395       8.46658953
C       39.71006396      78.04350609       9.13575733
C       41.07831067      78.77034183       8.68902494
C       41.10485138      80.20665648       9.20606689
C       42.38584068      81.02880634       8.61420354
C       37.26047647      69.17509413       9.15833025
C       38.59655608      69.84706887       8.67641711
C       38.70633596      71.32427839       9.20747579
C       39.96869006      72.11197137       8.77610956
C       39.84987378      73.73183869       9.08204386
C       41.13289170      74.34908478       8.54232945
C       41.18689725      75.83489095       9.03021767
C       42.47743654      76.58715005       8.60099556
C       42.29356516      77.95979451       9.27467591
C       43.63911080      78.83361707       9.33826464
C       43.73598290      80.22245060       8.60951492
C       45.02622875      81.04912962       9.18522129
C       44.96178258      82.49589830       8.47669183
C       46.31120292      83.32919368       8.44573060
C       41.29328480      71.22706299       9.33655728
C       42.62483902      72.06860991       9.21707049
C       42.35446331      73.61098879       9.10262761
C       43.66097546      74.35793560       8.54260859
C       43.73574715      75.79571911       9.11298692
C       45.04682329      76.50068516       8.61282517
C       45.00726308      78.08258571       8.65761269
C       46.25270772      78.75627404       9.31551726
C       46.28863078      80.25608878       8.75660267
C       47.59796017      80.95767330       9.23234825
C       47.44204864      82.61148794       9.21081080
C       44.99480809      73.74261193       9.00818975
C       46.34468769      74.42602465       8.60247175
C       46.40360356      75.92523173       9.18863291
C       47.69382993      76.58631518       8.68010328
C       47.74006145      78.06688086       9.18397802
F       38.49411506      69.71237772      12.61847025
F       38.66012756      76.86433746      12.61889035
F       40.65280192      78.48587401      12.61966356
F       42.43482609      80.31699376      12.63512140
F       44.11922411      82.18929035      12.75229486
F       37.88005258      72.20989028      12.61985298
F       40.19288923      75.37832850      12.59083405
F       42.92094697      77.97163029      12.90269025
F       44.94200582      79.71157566      12.72031895
F       46.55844539      81.60683105      12.66352449
F       48.46688207      83.51867072      12.60095083
F       40.15081812      71.30754814      12.76507259
F       40.86544955      73.34240805      12.68675309
F       42.45601769      75.02788215      12.52856384
F       44.29228196      76.16244725      12.82863827
F       46.06299671      77.40306679      12.74885110
F       47.63375676      79.23877359      12.65967387
F       44.56685113      72.83265043      12.50147450
F       46.25262652      74.60587398      12.56475232
F       38.53915931      78.84083479       7.28943929
F       38.56252808      74.03247316       7.02630071
F       38.13303823      76.25895743       7.04809392
F       40.24511755      76.79959698       7.14403320
F       41.19795437      78.84996826       7.31782748
F       42.11257502      81.21008751       7.29319506
F       38.57174239      69.84735385       7.30188515
F       40.04206728      72.13328962       7.40204987
F       41.10827977      74.36313560       7.16564070
F       42.65183057      76.69743093       7.23930377
F       43.92310017      80.07339602       7.26870352
F       44.54651709      82.37310364       7.17263703
F       46.55367991      83.43799055       7.10723006
F       43.56282305      74.26885122       7.16970460
F       45.07732771      76.17893542       7.27389863
F       45.08266942      78.30728882       7.31300151
F       46.27670547      80.25296514       7.38414592
F       46.46256615      74.40578675       7.23422543
F       47.67708238      76.53125747       7.30624570
C       39.84688768      80.91240213      11.26070338
C       40.13849930      87.79183922      11.29626741
C       40.64130780      89.16686582      10.71914042
C       41.99224988      89.64556229      11.26024538
C       42.28743446      91.13804430      10.77354892
C       43.68867871      91.49917817      11.27422997
C       43.93687965      93.02284556      10.88366745
C       45.36208289      93.34804832      11.39224380
C       39.05737796      83.34037714      11.26138542
C       39.32983940      84.79218986      10.66889704
C       40.89110575      85.18246920      10.63096685
C       41.26799860      86.66988205      11.25905225
C       42.62046903      87.12790665      10.60207943
C       43.12499655      88.67944127      10.74937497
C       44.41682722      88.98314471      11.57681706
C       44.85524573      90.34068950      10.88448732
C       46.20329801      90.86774158      11.35358391
C       46.43064047      92.31676219      10.80694397
C       47.90995859      92.74386127      11.30552021
C       48.35594697      94.10224000      10.74524323
C       49.76196928      94.60998804      11.24273349
C       38.47016183      80.40939426      10.71588159
C       40.12737214      82.37494271      10.78374933
C       41.54721788      82.73806738      11.44758545
C       41.97147429      84.28985894      11.36128915
C       43.40783947      84.72321561      10.72083951
C       43.74396511      86.14085312      11.17832943
C       45.14519686      86.59666041      10.64484094
C       45.52517208      87.82402573      11.56595571
C       47.00405971      88.39942452      11.43760772
C       47.31514674      89.88774626      10.87116055
C       48.73339909      90.33044626      11.31327806
C       49.01852875      91.79328549      10.77210650
C       44.42780621      83.50643799      10.74889081
C       45.87895951      83.96575450      11.13348857
C       46.23041260      85.33538810      10.56643973
C       47.60138322      85.81723843      11.20464710
C       47.89647316      87.28503537      10.78614037
C       39.75999700      90.00425996       8.68218926
C       39.84376098      85.48893608       8.37810143
C       39.74533761      87.08823603       8.35065733
C       41.17285763      87.79954399       8.48201931
C       40.98655405      89.20918613       9.15118711
C       42.35480076      89.93602187       8.70445472
C       42.38134148      91.37233652       9.22149667
C       43.66233078      92.19448638       8.62963332
C       38.53696656      80.34077417       9.17376003
C       39.87304618      81.01274891       8.69184689
C       39.98282605      82.48995843       9.22290556
C       41.24518016      83.27765141       8.79153934
C       41.12636388      84.89751873       9.09747364
C       42.40938179      85.51476482       8.55775923
C       42.46338735      87.00057099       9.04564745
C       43.75392663      87.75283009       8.61642534
C       43.57005526      89.12547455       9.29010568
C       44.91560089      89.99929711       9.35369442
C       45.01247300      91.38813064       8.62494470
C       46.30271884      92.21480966       9.20065106
C       46.23827268      93.66157834       8.49212160
C       47.58769301      94.49487372       8.46116038
C       42.56977490      82.39274303       9.35198706
C       43.90132911      83.23428995       9.23250026
C       43.63095341      84.77666883       9.11805739
C       44.93746556      85.52361564       8.55803837
C       45.01223725      86.96139915       9.12841670
C       46.32331339      87.66636520       8.62825494
C       46.28375318      89.24826575       8.67304247
C       47.52919782      89.92195408       9.33094704
C       47.56512088      91.42176882       8.77203245
C       48.87445026      92.12335334       9.24777803
C       48.71853874      93.77716798       9.22624058
C       46.27129818      84.90829197       9.02361953
C       47.62117779      85.59170469       8.61790153
C       47.68009365      87.09091177       9.20406269
C       48.97032002      87.75199522       8.69553305
C       49.01655154      89.23256090       9.19940780
F       39.77060515      80.87805776      12.63390003
F       39.93661766      88.03001750      12.63432012
F       41.92929201      89.65155405      12.63509334
F       43.71131619      91.48267380      12.65055118
F       45.39571421      93.35497039      12.76772464
F       39.15654268      83.37557032      12.63528276
F       41.46937933      86.54400854      12.60626383
F       44.19743707      89.13731033      12.91812002
F       46.21849592      90.87725570      12.73574873
F       47.83493548      92.77251109      12.67895427
F       49.74337216      94.68435076      12.61638061
F       41.42730821      82.47322818      12.78050237
F       42.14193965      84.50808809      12.70218287
F       43.73250778      86.19356219      12.54399362
F       45.56877205      87.32812729      12.84406805
F       47.33948681      88.56874683      12.76428088
F       48.91024686      90.40445363      12.67510365
F       45.84334122      83.99833047      12.51690428
F       47.52911662      85.77155402      12.58018209
F       39.81564941      90.00651483       7.30486906
F       39.83901818      85.19815320       7.04173049
F       39.40952833      87.42463747       7.06352370
F       41.52160764      87.96527702       7.15946297
F       42.47444447      90.01564830       7.33325725
F       43.38906511      92.37576755       7.30862484
F       39.84823248      81.01303389       7.31731493
F       41.31855738      83.29896966       7.41747965
F       42.38476987      85.52881564       7.18107048
F       43.92832066      87.86311097       7.25473355
F       45.19959027      91.23907606       7.28413330
F       45.82300719      93.53878369       7.18806681
F       47.83017001      94.60367059       7.12265984
F       44.83931315      85.43453126       7.18513438
F       46.35381780      87.34461546       7.28932841
F       46.35915952      89.47296886       7.32843129
F       47.55319557      91.41864518       7.39957570
F       47.73905625      85.57146679       7.24965521
F       48.95357247      87.69693751       7.32167548
C       42.47695347      18.37570051      11.16758607
C       42.76856509      25.25513760      11.20315010
C       43.27137359      26.63016420      10.62602311
C       44.62231567      27.10886068      11.16712807
C       44.91750024      28.60134268      10.68043161
C       46.31874449      28.96247655      11.18111266
C       46.56694543      30.48614394      10.79055014
C       47.99214868      30.81134671      11.29912649
C       41.68744375      20.80367553      11.16826811
C       41.95990519      22.25548825      10.57577973
C       43.52117153      22.64576758      10.53784954
C       43.89806438      24.13318043      11.16593494
C       45.25053481      24.59120503      10.50896212
C       45.75506234      26.14273965      10.65625766
C       47.04689301      26.44644309      11.48369974
C       47.48531152      27.80398788      10.79137001
C       48.83336380      28.33103996      11.26046660
C       49.06070626      29.78006058      10.71382666
C       50.54002437      30.20715966      11.21240290
C       50.98601275      31.56553838      10.65212592
C       52.39203507      32.07328642      11.14961618
C       41.10022761      17.87269264      10.62276428
C       42.75743793      19.83824110      10.69063202
C       44.17728367      20.20136576      11.35446814
C       44.60154008      21.75315732      11.26817184
C       46.03790526      22.18651400      10.62772220
C       46.37403090      23.60415150      11.08521212
C       47.77526265      24.05995879      10.55172363
C       48.15523786      25.28732411      11.47283840
C       49.63412549      25.86272291      11.34449041
C       49.94521253      27.35104464      10.77804324
C       51.36346487      27.79374464      11.22016075
C       51.64859454      29.25658387      10.67898919
C       47.05787199      20.96973637      10.65577350
C       48.50902530      21.42905289      11.04037126
C       48.86047838      22.79868649      10.47332242
C       50.23144900      23.28053681      11.11152979
C       50.52653895      24.74833375      10.69302306
C       42.39006279      27.46755834       8.58907195
C       42.47382677      22.95223446       8.28498412
C       42.37540340      24.55153441       8.25754002
C       43.80292341      25.26284238       8.38890200
C       43.61661984      26.67248452       9.05806980
C       44.98486655      27.39932025       8.61133741
C       45.01140727      28.83563490       9.12837936
C       46.29239657      29.65778476       8.53651601
C       41.16703235      17.80407256       9.08064272
C       42.50311197      18.47604730       8.59872957
C       42.61289184      19.95325681       9.12978825
C       43.87524594      20.74094979       8.69842203
C       43.75642967      22.36081711       9.00435633
C       45.03944758      22.97806320       8.46464192
C       45.09345313      24.46386937       8.95253014
C       46.38399242      25.21612847       8.52330803
C       46.20012104      26.58877293       9.19698837
C       47.54566668      27.46259549       9.26057711
C       47.64253878      28.85142902       8.53182739
C       48.93278463      29.67810804       9.10753375
C       48.86833847      31.12487672       8.39900429
C       50.21775880      31.95817210       8.36804307
C       45.19984068      19.85604142       9.25886975
C       46.53139490      20.69758833       9.13938295
C       46.26101920      22.23996721       9.02494008
C       47.56753134      22.98691402       8.46492106
C       47.64230304      24.42469753       9.03529939
C       48.95337917      25.12966358       8.53513763
C       48.91381897      26.71156413       8.57992516
C       50.15926361      27.38525246       9.23782973
C       50.19518667      28.88506721       8.67891514
C       51.50451605      29.58665172       9.15466072
C       51.34860452      31.24046637       9.13312327
C       48.90136397      22.37159036       8.93050222
C       50.25124357      23.05500308       8.52478422
C       50.31015944      24.55421015       9.11094538
C       51.60038581      25.21529360       8.60241574
C       51.64661733      26.69585929       9.10629049
F       42.40067094      18.34135614      12.54078272
F       42.56668344      25.49331588      12.54120281
F       44.55935780      27.11485244      12.54197603
F       46.34138197      28.94597218      12.55743387
F       48.02577999      30.81826878      12.67460732
F       41.78660847      20.83886871      12.54216545
F       44.09944511      24.00730692      12.51314652
F       46.82750285      26.60060871      12.82500271
F       48.84856171      28.34055408      12.64263142
F       50.46500127      30.23580947      12.58583696
F       52.37343795      32.14764914      12.52326330
F       44.05737400      19.93652656      12.68738506
F       44.77200544      21.97138648      12.60906556
F       46.36257357      23.65686058      12.45087631
F       48.19883784      24.79142567      12.75095074
F       49.96955259      26.03204522      12.67116357
F       51.54031265      27.86775201      12.58198634
F       48.47340701      21.46162885      12.42378697
F       50.15918241      23.23485241      12.48706478
F       42.44571519      27.46981321       7.21175175
F       42.46908397      22.66145158       6.94861318
F       42.03959412      24.88793586       6.97040639
F       44.15167343      25.42857540       7.06634566
F       45.10451025      27.47894668       7.24013994
F       46.01913090      29.83906593       7.21550753
F       42.47829827      18.47633228       7.22419762
F       43.94862316      20.76226804       7.32436234
F       45.01483565      22.99211403       7.08795317
F       46.55838645      25.32640936       7.16161624
F       47.82965605      28.70237444       7.19101599
F       48.45307297      31.00208207       7.09494950
F       50.46023580      32.06696897       7.02954253
F       47.46937893      22.89782964       7.09201707
F       48.98388359      24.80791384       7.19621110
F       48.98922531      26.93626725       7.23531398
F       50.18326136      28.88194357       7.30645839
F       50.36912203      23.03476517       7.15653790
F       51.58363826      25.16023589       7.22855816
C       43.75344357      29.54138055      11.18301585
C       44.04505518      36.42081764      11.21857988
C       44.54786368      37.79584424      10.64145289
C       45.89880576      38.27454072      11.18255785
C       46.19399034      39.76702272      10.69586139
C       47.59523459      40.12815659      11.19654243
C       47.84343553      41.65182398      10.80597991
C       49.26863877      41.97702675      11.31455626
C       42.96393384      31.96935557      11.18369789
C       43.23639528      33.42116829      10.59120951
C       44.79766163      33.81144762      10.55327932
C       45.17455448      35.29886047      11.18136472
C       46.52702491      35.75688507      10.52439189
C       47.03155243      37.30841969      10.67168743
C       48.32338311      37.61212313      11.49912952
C       48.76180162      38.96966792      10.80679979
C       50.10985389      39.49672000      11.27589638
C       50.33719635      40.94574062      10.72925644
C       51.81651447      41.37283970      11.22783268
C       52.26250285      42.73121842      10.66755570
C       53.66852516      43.23896646      11.16504595
C       42.37671771      29.03837268      10.63819406
C       44.03392802      31.00392114      10.70606180
C       45.45377377      31.36704580      11.36989791
C       45.87803017      32.91883736      11.28360162
C       47.31439535      33.35219404      10.64315198
C       47.65052099      34.76983154      11.10064190
C       49.05175275      35.22563883      10.56715341
C       49.43172796      36.45300415      11.48826818
C       50.91061559      37.02840295      11.35992018
C       51.22170262      38.51672468      10.79347302
C       52.63995497      38.95942468      11.23559053
C       52.92508464      40.42226391      10.69441897
C       48.33436209      32.13541641      10.67120327
C       49.78551540      32.59473293      11.05580104
C       50.13696848      33.96436653      10.48875220
C       51.50793910      34.44621685      11.12695957
C       51.80302904      35.91401379      10.70845284
C       43.66655289      38.63323838       8.60450173
C       43.75031686      34.11791450       8.30041389
C       43.65189350      35.71721445       8.27296979
C       45.07941351      36.42852242       8.40433178
C       44.89310994      37.83816456       9.07349958
C       46.26135665      38.56500029       8.62676719
C       46.28789736      40.00131494       9.14380913
C       47.56888666      40.82346480       8.55194579
C       42.44352245      28.96975260       9.09607250
C       43.77960206      29.64172734       8.61415935
C       43.88938193      31.11893685       9.14521803
C       45.15173604      31.90662983       8.71385181
C       45.03291976      33.52649715       9.01978611
C       46.31593768      34.14374324       8.48007170
C       46.36994323      35.62954941       8.96795992
C       47.66048252      36.38180851       8.53873781
C       47.47661114      37.75445297       9.21241815
C       48.82215678      38.62827553       9.27600689
C       48.91902888      40.01710906       8.54725717
C       50.20927473      40.84378808       9.12296353
C       50.14482856      42.29055676       8.41443407
C       51.49424890      43.12385214       8.38347285
C       46.47633078      31.02172146       9.27429953
C       47.80788499      31.86326837       9.15481273
C       47.53750929      33.40564725       9.04036986
C       48.84402144      34.15259406       8.48035083
C       48.91879313      35.59037757       9.05072917
C       50.22986927      36.29534362       8.55056741
C       50.19030906      37.87724417       8.59535494
C       51.43575370      38.55093250       9.25325951
C       51.47167676      40.05074725       8.69434491
C       52.78100615      40.75233176       9.17009049
C       52.62509462      42.40614641       9.14855305
C       50.17785406      33.53727040       8.94593200
C       51.52773367      34.22068312       8.54021399
C       51.58664954      35.71989019       9.12637516
C       52.87687590      36.38097364       8.61784552
C       52.92310743      37.86153933       9.12172026
F       43.67716104      29.50703618      12.55621250
F       43.84317354      36.65899592      12.55663259
F       45.83584790      38.28053248      12.55740581
F       47.61787207      40.11165222      12.57286365
F       49.30227009      41.98394882      12.69003710
F       43.06309856      32.00454875      12.55759523
F       45.37593521      35.17298696      12.52857629
F       48.10399295      37.76628875      12.84043249
F       50.12505180      39.50623412      12.65806119
F       51.74149137      41.40148951      12.60126673
F       53.64992805      43.31332918      12.53869308
F       45.33386409      31.10220660      12.70281484
F       46.04849553      33.13706652      12.62449534
F       47.63906367      34.82254062      12.46630609
F       49.47532793      35.95710571      12.76638052
F       51.24604269      37.19772526      12.68659335
F       52.81680274      39.03343205      12.59741612
F       49.74989711      32.62730889      12.43921675
F       51.43567250      34.40053245      12.50249456
F       43.72220529      38.63549325       7.22718153
F       43.74557406      33.82713162       6.96404296
F       43.31608421      36.05361590       6.98583616
F       45.42816353      36.59425544       7.08177544
F       46.38100035      38.64462672       7.25556972
F       47.29562099      41.00474597       7.23093730
F       43.75478837      29.64201232       7.23962739
F       45.22511326      31.92794808       7.33979212
F       46.29132575      34.15779407       7.10338295
F       47.83487655      36.49208940       7.17704602
F       49.10614615      39.86805448       7.20644577
F       49.72956307      42.16776211       7.11037928
F       51.73672589      43.23264901       7.04497231
F       48.74586903      34.06350968       7.10744685
F       50.26037369      35.97359388       7.21164088
F       50.26571540      38.10194729       7.25074376
F       51.45975145      40.04762361       7.32188817
F       51.64561213      34.20044521       7.17196768
F       52.86012836      36.32591593       7.24398794
C       45.02993366      40.70706059      11.19844563
C       45.32154528      47.58649768      11.23400966
C       45.82435378      48.96152428      10.65688267
C       47.17529586      49.44022076      11.19798762
C       47.47048043      50.93270276      10.71129116
C       48.87172468      51.29383663      11.21197221
C       49.11992563      52.81750402      10.82140969
C       50.54512887      53.14270679      11.32998604
C       44.24042394      43.13503561      11.19912766
C       44.51288538      44.58684833      10.60663928
C       46.07415173      44.97712766      10.56870910
C       46.45104458      46.46454051      11.19679449
C       47.80351500      46.92256511      10.53982167
C       48.30804253      48.47409973      10.68711721
C       49.59987320      48.77780317      11.51455930
C       50.03829171      50.13534796      10.82222957
C       51.38634399      50.66240004      11.29132616
C       51.61368645      52.11142066      10.74468621
C       53.09300457      52.53851974      11.24326245
C       53.53899295      53.89689846      10.68298547
C       54.94501526      54.40464650      11.18047573
C       43.65320781      40.20405272      10.65362384
C       45.31041812      42.16960118      10.72149158
C       46.73026386      42.53272584      11.38532769
C       47.15452027      44.08451740      11.29903139
C       48.59088545      44.51787408      10.65858176
C       48.92701109      45.93551158      11.11607168
C       50.32824284      46.39131887      10.58258319
C       50.70821805      47.61868419      11.50369795
C       52.18710569      48.19408299      11.37534996
C       52.49819272      49.68240472      10.80890279
C       53.91644507      50.12510472      11.25102031
C       54.20157473      51.58794395      10.70984874
C       49.61085219      43.30109645      10.68663305
C       51.06200549      43.76041297      11.07123082
C       51.41345858      45.13004657      10.50418198
C       52.78442920      45.61189689      11.14238935
C       53.07951914      47.07969383      10.72388262
C       44.94304298      49.79891842       8.61993151
C       45.02680696      45.28359454       8.31584367
C       44.92838359      46.88289449       8.28839957
C       46.35590361      47.59420246       8.41976156
C       46.16960003      49.00384460       9.08892936
C       47.53784674      49.73068033       8.64219697
C       47.56438746      51.16699499       9.15923891
C       48.84537676      51.98914484       8.56737557
C       43.72001254      40.13543264       9.11150228
C       45.05609216      40.80740738       8.62958913
C       45.16587203      42.28461689       9.16064781
C       46.42822614      43.07230987       8.72928158
C       46.30940986      44.69217719       9.03521588
C       47.59242777      45.30942328       8.49550147
C       47.64643333      46.79522945       8.98338969
C       48.93697261      47.54748855       8.55416759
C       48.75310123      48.92013301       9.22784793
C       50.09864687      49.79395557       9.29143666
C       50.19551897      51.18278910       8.56268694
C       51.48576482      52.00946812       9.13839331
C       51.42131866      53.45623680       8.42986385
C       52.77073899      54.28953218       8.39890263
C       47.75282087      42.18740150       9.28972931
C       49.08437509      43.02894841       9.17024251
C       48.81399939      44.57132729       9.05579964
C       50.12051153      45.31827410       8.49578061
C       50.19528323      46.75605761       9.06615895
C       51.50635937      47.46102366       8.56599719
C       51.46679916      49.04292421       8.61078471
C       52.71224380      49.71661254       9.26868929
C       52.74816686      51.21642729       8.70977469
C       54.05749624      51.91801180       9.18552027
C       53.90158471      53.57182645       9.16398282
C       51.45434416      44.70295044       8.96136177
C       52.80422376      45.38636316       8.55564377
C       52.86313963      46.88557023       9.14180493
C       54.15336600      47.54665368       8.63327530
C       54.19959752      49.02721937       9.13715004
F       44.95365113      40.67271622      12.57164227
F       45.11966364      47.82467596      12.57206237
F       47.11233799      49.44621252      12.57283558
F       48.89436217      51.27733226      12.58829343
F       50.57876018      53.14962886      12.70546688
F       44.33958866      43.17022879      12.57302501
F       46.65242531      46.33866701      12.54400607
F       49.38048304      48.93196879      12.85586227
F       51.40154190      50.67191416      12.67349097
F       53.01798146      52.56716955      12.61669651
F       54.92641814      54.47900922      12.55412285
F       46.61035419      42.26788664      12.71824461
F       47.32498563      44.30274656      12.63992511
F       48.91555376      45.98822066      12.48173586
F       50.75181803      47.12278575      12.78181029
F       52.52253279      48.36340530      12.70202312
F       54.09329284      50.19911209      12.61284590
F       51.02638720      43.79298893      12.45464653
F       52.71216260      45.56621249      12.51792434
F       44.99869539      49.80117329       7.24261131
F       45.02206416      44.99281166       6.97947273
F       44.59257431      47.21929594       7.00126594
F       46.70465362      47.75993548       7.09720522
F       47.65749044      49.81030676       7.27099950
F       48.57211109      52.17042601       7.24636708
F       45.03127846      40.80769236       7.25505717
F       46.50160336      43.09362812       7.35522189
F       47.56781585      45.32347411       7.11881272
F       49.11136664      47.65776944       7.19247579
F       50.38263624      51.03373452       7.22187555
F       51.00605316      53.33344215       7.12580906
F       53.01321599      54.39832905       7.06040209
F       50.02235912      45.22918972       7.12287663
F       51.53686378      47.13927392       7.22707066
F       51.54220550      49.26762733       7.26617354
F       52.73624155      51.21330365       7.33731795
F       52.92210222      45.36612525       7.18739746
F       54.13661845      47.49159597       7.25941772
C       46.30642376      51.87274063      11.21387540
C       46.59803538      58.75217772      11.24943944
C       47.10084387      60.12720432      10.67231244
C       48.45178595      60.60590080      11.21341740
C       48.74697053      62.09838280      10.72672094
C       50.14821478      62.45951667      11.22740199
C       50.39641572      63.98318406      10.83683947
C       51.82161897      64.30838683      11.34541582
C       45.51691403      54.30071565      11.21455744
C       45.78937547      55.75252837      10.62206906
C       47.35064182      56.14280770      10.58413888
C       47.72753467      57.63022055      11.21222427
C       49.08000510      58.08824515      10.55525145
C       49.58453263      59.63977977      10.70254699
C       50.87636330      59.94348321      11.52998908
C       51.31478181      61.30102800      10.83765935
C       52.66283408      61.82808008      11.30675594
C       52.89017654      63.27710070      10.76011599
C       54.36949466      63.70419978      11.25869223
C       54.81548304      65.06257850      10.69841525
C       56.22150535      65.57032654      11.19590551
C       44.92969790      51.36973276      10.66905362
C       46.58690822      53.33528122      10.73692136
C       48.00675396      53.69840588      11.40075747
C       48.43101037      55.25019744      11.31446117
C       49.86737555      55.68355412      10.67401153
C       50.20350119      57.10119162      11.13150146
C       51.60473294      57.55699891      10.59801297
C       51.98470815      58.78436423      11.51912773
C       53.46359578      59.35976303      11.39077974
C       53.77468282      60.84808477      10.82433257
C       55.19293516      61.29078476      11.26645009
C       55.47806483      62.75362399      10.72527852
C       50.88734228      54.46677649      10.70206283
C       52.33849559      54.92609301      11.08666060
C       52.68994867      56.29572661      10.51961176
C       54.06091929      56.77757693      11.15781912
C       54.35600923      58.24537387      10.73931239
C       46.21953308      60.96459846       8.63536128
C       46.30329705      56.44927458       8.33127345
C       46.20487369      58.04857453       8.30382935
C       47.63239370      58.75988250       8.43519133
C       47.44609013      60.16952464       9.10435913
C       48.81433684      60.89636037       8.65762674
C       48.84087756      62.33267503       9.17466869
C       50.12186685      63.15482488       8.58280535
C       44.99650264      51.30111268       9.12693205
C       46.33258226      51.97308742       8.64501891
C       46.44236213      53.45029693       9.17607759
C       47.70471623      54.23798991       8.74471136
C       47.58589995      55.85785723       9.05064566
C       48.86891787      56.47510332       8.51093125
C       48.92292342      57.96090949       8.99881947
C       50.21346271      58.71316859       8.56959737
C       50.02959133      60.08581306       9.24327771
C       51.37513697      60.95963561       9.30686644
C       51.47200907      62.34846914       8.57811672
C       52.76225492      63.17514816       9.15382309
C       52.69780876      64.62191684       8.44529363
C       54.04722909      65.45521222       8.41433240
C       49.02931097      53.35308154       9.30515909
C       50.36086519      54.19462845       9.18567229
C       50.09048949      55.73700733       9.07122941
C       51.39700163      56.48395414       8.51121039
C       51.47177332      57.92173765       9.08158872
C       52.78284946      58.62670371       8.58142697
C       52.74328925      60.20860425       8.62621449
C       53.98873390      60.88229258       9.28411907
C       54.02465696      62.38210733       8.72520447
C       55.33398634      63.08369184       9.20095005
C       55.17807481      64.73750649       9.17941260
C       52.73083426      55.86863048       8.97679155
C       54.08071386      56.55204320       8.57107355
C       54.13962973      58.05125027       9.15723471
C       55.42985610      58.71233372       8.64870508
C       55.47608762      60.19289941       9.15257982
F       46.23014123      51.83839626      12.58707205
F       46.39615373      58.99035600      12.58749215
F       48.38882809      60.61189256      12.58826536
F       50.17085226      62.44301230      12.60372320
F       51.85525028      64.31530890      12.72089666
F       45.61607875      54.33590883      12.58845478
F       47.92891540      57.50434705      12.55943585
F       50.65697314      60.09764884      12.87129205
F       52.67803199      61.83759420      12.68892075
F       54.29447156      63.73284959      12.63212629
F       56.20290824      65.64468926      12.56955263
F       47.88684429      53.43356668      12.73367439
F       48.60147573      55.46842660      12.65535489
F       50.19204386      57.15390070      12.49716564
F       52.02830813      58.28846579      12.79724007
F       53.79902288      59.52908534      12.71745290
F       55.36978293      61.36479213      12.62827568
F       52.30287730      54.95866897      12.47007630
F       53.98865270      56.73189253      12.53335412
F       46.27518548      60.96685333       7.25804109
F       46.29855425      56.15849170       6.99490251
F       45.86906440      58.38497598       7.01669572
F       47.98114372      58.92561552       7.11263500
F       48.93398054      60.97598680       7.28642928
F       49.84860119      63.33610605       7.26179686
F       46.30776856      51.97337240       7.27048695
F       47.77809345      54.25930816       7.37065167
F       48.84430594      56.48915415       7.13424250
F       50.38785674      58.82344948       7.20790557
F       51.65912634      62.19941456       7.23730533
F       52.28254326      64.49912219       7.14123883
F       54.28970608      65.56400909       7.07583187
F       51.29884922      56.39486976       7.13830640
F       52.81335388      58.30495397       7.24250043
F       52.81869559      60.43330737       7.28160332
F       54.01273165      62.37898369       7.35274772
F       54.19859232      56.53180529       7.20282723
F       55.41310855      58.65727601       7.27484750
C       47.58291385      63.03842067      11.22930518
C       47.87452547      69.91785776      11.26486921
C       48.37733397      71.29288436      10.68774222
C       49.72827605      71.77158084      11.22884718
C       50.02346063      73.26406284      10.74215072
C       51.42470488      73.62519671      11.24283177
C       51.67290582      75.14886410      10.85226925
C       53.09810906      75.47406687      11.36084560
C       46.79340413      65.46639569      11.22998722
C       47.06586557      66.91820841      10.63749884
C       48.62713192      67.30848774      10.59956865
C       49.00402477      68.79590059      11.22765405
C       50.35649520      69.25392519      10.57068123
C       50.86102272      70.80545981      10.71797677
C       52.15285339      71.10916325      11.54541886
C       52.59127190      72.46670804      10.85308913
C       53.93932418      72.99376012      11.32218571
C       54.16666664      74.44278074      10.77554577
C       55.64598476      74.86987982      11.27412201
C       56.09197314      76.22825854      10.71384503
C       57.49799545      76.73600658      11.21133529
C       46.20618800      62.53541280      10.68448340
C       47.86339831      64.50096126      10.75235113
C       49.28324405      64.86408592      11.41618725
C       49.70750046      66.41587748      11.32989095
C       51.14386564      66.84923416      10.68944131
C       51.47999128      68.26687166      11.14693123
C       52.88122303      68.72267895      10.61344275
C       53.26119825      69.95004427      11.53455751
C       54.74008588      70.52544307      11.40620952
C       55.05117291      72.01376481      10.83976235
C       56.46942526      72.45646480      11.28187986
C       56.75455493      73.91930403      10.74070830
C       52.16383238      65.63245653      10.71749261
C       53.61498568      66.09177305      11.10209037
C       53.96643877      67.46140665      10.53504153
C       55.33740939      67.94325697      11.17324890
C       55.63249933      69.41105391      10.75474217
C       47.49602317      72.13027850       8.65079106
C       47.57978715      67.61495462       8.34670323
C       47.48136379      69.21425457       8.31925913
C       48.90888380      69.92556254       8.45062111
C       48.72258022      71.33520468       9.11978891
C       50.09082693      72.06204041       8.67305652
C       50.11736765      73.49835507       9.19009847
C       51.39835695      74.32050492       8.59823512
C       46.27299273      62.46679272       9.14236183
C       47.60907235      63.13876746       8.66044869
C       47.71885222      64.61597697       9.19150737
C       48.98120633      65.40366995       8.76014114
C       48.86239005      67.02353727       9.06607544
C       50.14540797      67.64078336       8.52636103
C       50.19941352      69.12658953       9.01424925
C       51.48995281      69.87884863       8.58502714
C       51.30608143      71.25149310       9.25870749
C       52.65162707      72.12531565       9.32229622
C       52.74849917      73.51414918       8.59354650
C       54.03874501      74.34082820       9.16925287
C       53.97429885      75.78759688       8.46072340
C       55.32371918      76.62089226       8.42976218
C       50.30580107      64.51876158       9.32058886
C       51.63735528      65.36030849       9.20110207
C       51.36697958      66.90268737       9.08665919
C       52.67349173      67.64963418       8.52664017
C       52.74826342      69.08741769       9.09701850
C       54.05933956      69.79238375       8.59685675
C       54.01977935      71.37428429       8.64164427
C       55.26522399      72.04797262       9.29954884
C       55.30114705      73.54778737       8.74063425
C       56.61047644      74.24937189       9.21637983
C       56.45456491      75.90318653       9.19484238
C       54.00732435      67.03431052       8.99222133
C       55.35720396      67.71772324       8.58650333
C       55.41611982      69.21693031       9.17266449
C       56.70634619      69.87801376       8.66413486
C       56.75257771      71.35857945       9.16800960
F       47.50663132      63.00407630      12.60250183
F       47.67264383      70.15603604      12.60292192
F       49.66531818      71.77757260      12.60369514
F       51.44734236      73.60869234      12.61915298
F       53.13174038      75.48098894      12.73632644
F       46.89256885      65.50158887      12.60388456
F       49.20540550      68.67002709      12.57486563
F       51.93346324      71.26332888      12.88672183
F       53.95452209      73.00327424      12.70435053
F       55.57096165      74.89852963      12.64755607
F       57.47939833      76.81036930      12.58498241
F       49.16333438      64.59924672      12.74910417
F       49.87796582      66.63410664      12.67078467
F       51.46853395      68.31958074      12.51259542
F       53.30479822      69.45414583      12.81266985
F       55.07551298      70.69476538      12.73288268
F       56.64627303      72.53047217      12.64370545
F       53.57936739      66.12434901      12.48550608
F       55.26514279      67.89757257      12.54878390
F       47.55167558      72.13253337       7.27347087
F       47.57504435      67.32417174       7.01033229
F       47.14555450      69.55065602       7.03212550
F       49.25763381      70.09129556       7.12806478
F       50.21047064      72.14166684       7.30185906
F       51.12509128      74.50178609       7.27722664
F       47.58425865      63.13905244       7.28591673
F       49.05458355      65.42498820       7.38608145
F       50.12079604      67.65483419       7.14967228
F       51.66434684      69.98912952       7.22333535
F       52.93561644      73.36509460       7.25273510
F       53.55903336      75.66480223       7.15666861
F       55.56619618      76.72968913       7.09126164
F       52.57533932      67.56054980       7.15373618
F       54.08984397      69.47063401       7.25793021
F       54.09518569      71.59898741       7.29703309
F       55.28922174      73.54466373       7.36817750
F       55.47508242      67.69748533       7.21825701
F       56.68959865      69.82295605       7.29027728
C       48.85940395      74.20410071      11.24473496
C       49.15101557      81.08353780      11.28029899
C       49.65382407      82.45856440      10.70317200
C       51.00476615      82.93726088      11.24427696
C       51.29995072      84.42974288      10.75758050
C       52.70119497      84.79087675      11.25826154
C       52.94939591      86.31454414      10.86769903
C       54.37459916      86.63974691      11.37627538
C       48.06989423      76.63207573      11.24541700
C       48.34235567      78.08388845      10.65292862
C       49.90362201      78.47416778      10.61499843
C       50.28051486      79.96158063      11.24308383
C       51.63298529      80.41960524      10.58611101
C       52.13751282      81.97113985      10.73340654
C       53.42934349      82.27484329      11.56084863
C       53.86776200      83.63238808      10.86851890
C       55.21581428      84.15944016      11.33761549
C       55.44315674      85.60846078      10.79097555
C       56.92247485      86.03555986      11.28955179
C       57.36846323      87.39393858      10.72927481
C       58.77448555      87.90168662      11.22676506
C       47.48267809      73.70109284      10.69991317
C       49.13988841      75.66664130      10.76778091
C       50.55973415      76.02976596      11.43161702
C       50.98399056      77.58155752      11.34532073
C       52.42035574      78.01491420      10.70487109
C       52.75648138      79.43255170      11.16236101
C       54.15771313      79.88835899      10.62887252
C       54.53768834      81.11572431      11.54998729
C       56.01657597      81.69112311      11.42163930
C       56.32766301      83.17944485      10.85519213
C       57.74591535      83.62214484      11.29730964
C       58.03104502      85.08498407      10.75613808
C       53.44032247      76.79813657      10.73292239
C       54.89147578      77.25745309      11.11752015
C       55.24292886      78.62708669      10.55047131
C       56.61389948      79.10893701      11.18867868
C       56.90898943      80.57673395      10.77017195
C       48.77251327      83.29595854       8.66622084
C       48.85627725      78.78063466       8.36213301
C       48.75785388      80.37993461       8.33468891
C       50.18537389      81.09124258       8.46605089
C       49.99907032      82.50088472       9.13521869
C       51.36731703      83.22772045       8.68848630
C       51.39385775      84.66403511       9.20552825
C       52.67484704      85.48618496       8.61366490
C       47.54948283      73.63247276       9.15779161
C       48.88556245      74.30444750       8.67587846
C       48.99534232      75.78165701       9.20693714
C       50.25769642      76.56934999       8.77557092
C       50.13888015      78.18921731       9.08150522
C       51.42189806      78.80646340       8.54179081
C       51.47590361      80.29226957       9.02967903
C       52.76644290      81.04452867       8.60045692
C       52.58257152      82.41717314       9.27413726
C       53.92811716      83.29099569       9.33772600
C       54.02498926      84.67982922       8.60897628
C       55.31523511      85.50650824       9.18468264
C       55.25078895      86.95327692       8.47615318
C       56.60020928      87.78657230       8.44519196
C       51.58229116      75.68444162       9.33601864
C       52.91384538      76.52598853       9.21653184
C       52.64346968      78.06836741       9.10208897
C       53.94998182      78.81531422       8.54206994
C       54.02475352      80.25309773       9.11244828
C       55.33582965      80.95806379       8.61228652
C       55.29626945      82.53996433       8.65707405
C       56.54171409      83.21365266       9.31497862
C       56.57763715      84.71346741       8.75606402
C       57.88696653      85.41505193       9.23180961
C       57.73105500      87.06886657       9.21027216
C       55.28381445      78.19999056       9.00765111
C       56.63369405      78.88340328       8.60193311
C       56.69260992      80.38261035       9.18809427
C       57.98283629      81.04369380       8.67956463
C       58.02906781      82.52425949       9.18343938
F       48.78312142      74.16975634      12.61793161
F       48.94913392      81.32171608      12.61835170
F       50.94180828      82.94325264      12.61912492
F       52.72383245      84.77437239      12.63458276
F       54.40823047      86.64666898      12.75175621
F       48.16905895      76.66726891      12.61931434
F       50.48189559      79.83570713      12.59029541
F       53.20995333      82.42900892      12.90215160
F       55.23101219      84.16895428      12.71978031
F       56.84745175      86.06420967      12.66298584
F       58.75588843      87.97604934      12.60041219
F       50.43982448      75.76492676      12.76453395
F       51.15445592      77.79978668      12.68621445
F       52.74502405      79.48526078      12.52802520
F       54.58128832      80.61982587      12.82809963
F       56.35200307      81.86044542      12.74831246
F       57.92276313      83.69615221      12.65913523
F       54.85585749      77.29002905      12.50093586
F       56.54163289      79.06325261      12.56421367
F       48.82816567      83.29821341       7.28890064
F       48.85153445      78.48985178       7.02576207
F       48.42204460      80.71633606       7.04755528
F       50.53412391      81.25697560       7.14349455
F       51.48696073      83.30734688       7.31728883
F       52.40158138      85.66746613       7.29265642
F       48.86074875      74.30473248       7.30134651
F       50.33107364      76.59066824       7.40151123
F       51.39728613      78.82051423       7.16510206
F       52.94083693      81.15480956       7.23876513
F       54.21210653      84.53077464       7.26816488
F       54.83552345      86.83048227       7.17209839
F       56.84268628      87.89536917       7.10669142
F       53.85182941      78.72622984       7.16916596
F       55.36633407      80.63631405       7.27335999
F       55.37167579      82.76466745       7.31246287
F       56.56571184      84.71034377       7.38360728
F       56.75157251      78.86316537       7.23368679
F       57.96608874      80.98863609       7.30570705
C       50.13589405      85.36978075      11.26016474
C       50.42750566      92.24921784      11.29572877
C       50.93031416      93.62424444      10.71860178
C       52.28125624      94.10294092      11.25970674
C       52.57644082      95.59542292      10.77301028
C       53.97768507      95.95655679      11.27369132
C       54.22588601      97.48022419      10.88312880
C       55.65108925      97.80542695      11.39170515
C       49.34638432      87.79775577      11.26084678
C       49.61884576      89.24956849      10.66835840
C       51.18011211      89.63984782      10.63042821
C       51.55700496      91.12726067      11.25851360
C       52.90947539      91.58528528      10.60154078
C       53.41400291      93.13681989      10.74883632
C       54.70583359      93.44052333      11.57627841
C       55.14425210      94.79806812      10.88394868
C       56.49230437      95.32512020      11.35304527
C       56.71964683      96.77414082      10.80640533
C       58.19896495      97.20123990      11.30498157
C       58.64495333      98.55961862      10.74470459
C       60.05097564      99.06736666      11.24219484
C       48.75916819      84.86677288      10.71534295
C       50.41637850      86.83232134      10.78321069
C       51.83622425      87.19544600      11.44704680
C       52.26048065      88.74723756      11.36075051
C       53.69684583      89.18059424      10.72030087
C       54.03297147      90.59823174      11.17779079
C       55.43420323      91.05403903      10.64430230
C       55.81417844      92.28140435      11.56541707
C       57.29306607      92.85680315      11.43706907
C       57.60415310      94.34512489      10.87062190
C       59.02240545      94.78782488      11.31273942
C       59.30753512      96.25066411      10.77156786
C       54.71681257      87.96381661      10.74835216
C       56.16796588      88.42313313      11.13294993
C       56.51941896      89.79276673      10.56590109
C       57.89038958      90.27461705      11.20410846
C       58.18547952      91.74241399      10.78560173
C       50.04900337      94.46163858       8.68165062
C       50.13276734      89.94631470       8.37756278
C       50.03434398      91.54561465       8.35011868
C       51.46186399      92.25692262       8.48148067
C       51.27556042      93.66656476       9.15064847
C       52.64380712      94.39340049       8.70391608
C       52.67034784      95.82971515       9.22095802
C       53.95133714      96.65186500       8.62909468
C       48.82597293      84.79815280       9.17322139
C       50.16205254      85.47012754       8.69130824
C       50.27183241      86.94733705       9.22236692
C       51.53418652      87.73503003       8.79100070
C       51.41537024      89.35489735       9.09693500
C       52.69838816      89.97214344       8.55722059
C       52.75239371      91.45794961       9.04510881
C       54.04293300      92.21020871       8.61588670
C       53.85906162      93.58285318       9.28956704
C       55.20460726      94.45667573       9.35315578
C       55.30147936      95.84550926       8.62440606
C       56.59172520      96.67218828       9.20011242
C       56.52727904      98.11895696       8.49158296
C       57.87669938      98.95225234       8.46062174
C       52.85878126      86.85012166       9.35144842
C       54.19033547      87.69166857       9.23196162
C       53.91995977      89.23404745       9.11751875
C       55.22647192      89.98099426       8.55749972
C       55.30124361      91.41877777       9.12787806
C       56.61231975      92.12374383       8.62771630
C       56.57275954      93.70564437       8.67250383
C       57.81820418      94.37933270       9.33040840
C       57.85412724      95.87914745       8.77149380
C       59.16345663      96.58073197       9.24723938
C       59.00754510      98.23454661       9.22570194
C       56.56030454      89.36567060       9.02308089
C       57.91018415      90.04908332       8.61736288
C       57.96910002      91.54829039       9.20352405
C       59.25932638      92.20937384       8.69499441
C       59.30555791      93.68993953       9.19886915
F       50.05961152      85.33543638      12.63336139
F       50.22562402      92.48739612      12.63378148
F       52.21829838      94.10893268      12.63455470
F       54.00032255      95.94005243      12.65001254
F       55.68472057      97.81234902      12.76718599
F       49.44554904      87.83294895      12.63474412
F       51.75838569      91.00138717      12.60572518
F       54.48644343      93.59468896      12.91758138
F       56.50750228      95.33463432      12.73521008
F       58.12394185      97.22988971      12.67841562
F       60.03237853      99.14172938      12.61584197
F       51.71631457      86.93060680      12.77996373
F       52.43094601      88.96546672      12.70164423
F       54.02151415      90.65094082      12.54345498
F       55.85777841      91.78550592      12.84352941
F       57.62849317      93.02612546      12.76374224
F       59.19925322      94.86183225      12.67456501
F       56.13234758      88.45570909      12.51636564
F       57.81812298      90.22893265      12.57964345
F       50.10465577      94.46389345       7.30433042
F       50.12802454      89.65553182       7.04119185
F       49.69853469      91.88201610       7.06298505
F       51.81061401      92.42265564       7.15892433
F       52.76345083      94.47302692       7.33271861
F       53.67807147      96.83314617       7.30808619
F       50.13723884      85.47041252       7.31677628
F       51.60756374      87.75634828       7.41694101
F       52.67377623      89.98619427       7.18053184
F       54.21732703      92.32048960       7.25419490
F       55.48859663      95.69645468       7.28359466
F       56.11201355      97.99616231       7.18752817
F       58.11917637      99.06104921       7.12212120
F       55.12831951      89.89190988       7.18459574
F       56.64282417      91.80199409       7.28878977
F       56.64816588      93.93034749       7.32789265
F       57.84220193      95.87602381       7.39903706
F       58.02806261      90.02884541       7.24911657
F       59.24257884      92.15431613       7.32113683
C       52.76595983      22.83307913      11.16704743
C       53.05757145      29.71251623      11.20261146
C       53.56037995      31.08754283      10.62548447
C       54.91132203      31.56623930      11.16658943
C       55.20650661      33.05872130      10.67989297
C       56.60775086      33.41985517      11.18057401
C       56.85595180      34.94352257      10.79001149
C       58.28115504      35.26872533      11.29858784
C       51.97645011      25.26105415      11.16772946
C       52.24891155      26.71286687      10.57524109
C       53.81017790      27.10314621      10.53731090
C       54.18707075      28.59055906      11.16539629
C       55.53954118      29.04858366      10.50842347
C       56.04406870      30.60011828      10.65571901
C       57.33589937      30.90382171      11.48316110
C       57.77431788      32.26136650      10.79083137
C       59.12237016      32.78841858      11.25992796
C       59.34971262      34.23743920      10.71328802
C       60.82903074      34.66453828      11.21186426
C       61.27501912      36.02291700      10.65158728
C       62.68104143      36.53066504      11.14907753
C       51.38923398      22.33007126      10.62222564
C       53.04644429      24.29561972      10.69009338
C       54.46629003      24.65874438      11.35392949
C       54.89054644      26.21053595      11.26763320
C       56.32691162      26.64389262      10.62718356
C       56.66303726      28.06153013      11.08467348
C       58.06426901      28.51733741      10.55118499
C       58.44424423      29.74470273      11.47229976
C       59.92313186      30.32010153      11.34395176
C       60.23421889      31.80842327      10.77750459
C       61.65247124      32.25112327      11.21962211
C       61.93760090      33.71396249      10.67845055
C       57.34687836      25.42711500      10.65523485
C       58.79803166      25.88643151      11.03983262
C       59.14948475      27.25606511      10.47278378
C       60.52045537      27.73791543      11.11099115
C       60.81554531      29.20571238      10.69248442
C       52.67906915      31.92493697       8.58853331
C       52.76283313      27.40961308       8.28444547
C       52.66440976      29.00891304       8.25700137
C       54.09192978      29.72022100       8.38836336
C       53.90562620      31.12986314       9.05753116
C       55.27387291      31.85669888       8.61079877
C       55.30041363      33.29301353       9.12784071
C       56.58140293      34.11516339       8.53597737
C       51.45603871      22.26145118       9.08010408
C       52.79211833      22.93342592       8.59819093
C       52.90189820      24.41063544       9.12924961
C       54.16425231      25.19832841       8.69788339
C       54.04543603      26.81819574       9.00381769
C       55.32845394      27.43544183       8.46410328
C       55.38245950      28.92124800       8.95199150
C       56.67299878      29.67350710       8.52276939
C       56.48912740      31.04615156       9.19644973
C       57.83467304      31.91997412       9.26003847
C       57.93154515      33.30880765       8.53128875
C       59.22179099      34.13548667       9.10699511
C       59.15734483      35.58225535       8.39846565
C       60.50676516      36.41555072       8.36750443
C       55.48884705      24.31342004       9.25833111
C       56.82040126      25.15496695       9.13884431
C       56.55002556      26.69734583       9.02440144
C       57.85653770      27.44429264       8.46438241
C       57.93130940      28.88207615       9.03476075
C       59.24238554      29.58704221       8.53459899
C       59.20282533      31.16894275       8.57938652
C       60.44826997      31.84263108       9.23729109
C       60.48419303      33.34244583       8.67837649
C       61.79352241      34.04403035       9.15412207
C       61.63761088      35.69784499       9.13258463
C       59.19037033      26.82896898       8.92996358
C       60.54024994      27.51238170       8.52424557
C       60.59916580      29.01158877       9.11040673
C       61.88939217      29.67267223       8.60187710
C       61.93562369      31.15323791       9.10575184
F       52.68967730      22.79873476      12.54024408
F       52.85568981      29.95069450      12.54066417
F       54.84836416      31.57223106      12.54143738
F       56.63038834      33.40335081      12.55689523
F       58.31478636      35.27564740      12.67406868
F       52.07561483      25.29624733      12.54162681
F       54.38845148      28.46468555      12.51260787
F       57.11650922      31.05798734      12.82446407
F       59.13756807      32.79793271      12.64209277
F       60.75400763      34.69318809      12.58529831
F       62.66244431      36.60502777      12.52272465
F       54.34638036      24.39390519      12.68684642
F       55.06101180      26.42876510      12.60852692
F       56.65157993      28.11423920      12.45033767
F       58.48784420      29.24880430      12.75041210
F       60.25855896      30.48942384      12.67062492
F       61.82931901      32.32513064      12.58144770
F       58.76241337      25.91900748      12.42324833
F       60.44818877      27.69223103      12.48652614
F       52.73472156      31.92719183       7.21121311
F       52.75809033      27.11883020       6.94807454
F       52.32860048      29.34531448       6.96986774
F       54.44067979      29.88595402       7.06580702
F       55.39351662      31.93632530       7.23960130
F       56.30813726      34.29644455       7.21496888
F       52.76730463      22.93371090       7.22365897
F       54.23762953      25.21964666       7.32382370
F       55.30384202      27.44949265       7.08741453
F       56.84739281      29.78378798       7.16107759
F       58.11866242      33.15975307       7.19047735
F       58.74207934      35.45946069       7.09441086
F       60.74924216      36.52434759       7.02900389
F       57.75838530      27.35520826       7.09147843
F       59.27288995      29.26529247       7.19567246
F       59.27823167      31.39364587       7.23477534
F       60.47226772      33.33932219       7.30591975
F       60.65812840      27.49214379       7.15599926
F       61.87264462      29.61761451       7.22801952
C       54.04244993      33.99875917      11.18247721
C       54.33406155      40.87819627      11.21804124
C       54.83687004      42.25322287      10.64091425
C       56.18781212      42.73191934      11.18201920
C       56.48299670      44.22440134      10.69532274
C       57.88424095      44.58553521      11.19600379
C       58.13244189      46.10920261      10.80544127
C       59.55764514      46.43440537      11.31401762
C       53.25294021      36.42673419      11.18315924
C       53.52540165      37.87854691      10.59067086
C       55.08666799      38.26882625      10.55274068
C       55.46356084      39.75623910      11.18082607
C       56.81603127      40.21426370      10.52385325
C       57.32055880      41.76579832      10.67114879
C       58.61238947      42.06950175      11.49859088
C       59.05080798      43.42704654      10.80626115
C       60.39886025      43.95409862      11.27535774
C       60.62620271      45.40311924      10.72871779
C       62.10552083      45.83021832      11.22729403
C       62.55150921      47.18859705      10.66701705
C       63.95753152      47.69634508      11.16450731
C       52.66572407      33.49575130      10.63765542
C       54.32293439      35.46129976      10.70552316
C       55.74278013      35.82442442      11.36935927
C       56.16703654      37.37621599      11.28306297
C       57.60340172      37.80957266      10.64261334
C       57.93952736      39.22721017      11.10010326
C       59.34075911      39.68301745      10.56661477
C       59.72073432      40.91038277      11.48772953
C       61.19962195      41.48578157      11.35938154
C       61.51070899      42.97410331      10.79293437
C       62.92896133      43.41680331      11.23505189
C       63.21409100      44.87964253      10.69388032
C       58.62336845      36.59279504      10.67066463
C       60.07452176      37.05211155      11.05526240
C       60.42597484      38.42174515      10.48821356
C       61.79694546      38.90359547      11.12642093
C       62.09203540      40.37139242      10.70791419
C       53.95555925      43.09061701       8.60396309
C       54.03932323      38.57529312       8.29987525
C       53.94089986      40.17459308       8.27243115
C       55.36841987      40.88590104       8.40379313
C       55.18211630      42.29554318       9.07296093
C       56.55036301      43.02237892       8.62622854
C       56.57690373      44.45869357       9.14327049
C       57.85789302      45.28084343       8.55140715
C       52.73252881      33.42713122       9.09553385
C       54.06860843      34.09910596       8.61362071
C       54.17838830      35.57631548       9.14467939
C       55.44074240      36.36400845       8.71331316
C       55.32192613      37.98387578       9.01924746
C       56.60494404      38.60112187       8.47953305
C       56.65894959      40.08692804       8.96742127
C       57.94948888      40.83918714       8.53819917
C       57.76561750      42.21183160       9.21187951
C       59.11116314      43.08565416       9.27546824
C       59.20803524      44.47448769       8.54671852
C       60.49828109      45.30116671       9.12242489
C       60.43383493      46.74793539       8.41389543
C       61.78325526      47.58123077       8.38293421
C       56.76533714      35.47910008       9.27376089
C       58.09689136      36.32064699       9.15427409
C       57.82651566      37.86302587       9.03983122
C       59.13302780      38.60997268       8.47981219
C       59.20779950      40.04775619       9.05019052
C       60.51887563      40.75272225       8.55002877
C       60.47931543      42.33462279       8.59481629
C       61.72476007      43.00831112       9.25272087
C       61.76068313      44.50812587       8.69380627
C       63.07001251      45.20971039       9.16955185
C       62.91410098      46.86352503       9.14801440
C       60.46686043      37.99464902       8.94539335
C       61.81674003      38.67806174       8.53967535
C       61.87565590      40.17726882       9.12583651
C       63.16588227      40.83835227       8.61730688
C       63.21211379      42.31891795       9.12118162
F       53.96616740      33.96441480      12.55567385
F       54.13217990      41.11637454      12.55609395
F       56.12485426      42.73791110      12.55686716
F       57.90687843      44.56903085      12.57232501
F       59.59127645      46.44132744      12.68949846
F       53.35210493      36.46192737      12.55705659
F       55.66494157      39.63036559      12.52803765
F       58.39299931      42.22366738      12.83989385
F       60.41405817      43.96361275      12.65752255
F       62.03049773      45.85886813      12.60072809
F       63.93893441      47.77070781      12.53815443
F       55.62287046      35.55958523      12.70227619
F       56.33750190      37.59444514      12.62395669
F       57.92807003      39.27991924      12.46576744
F       59.76433430      40.41448434      12.76584187
F       61.53504905      41.65510388      12.68605470
F       63.10580911      43.49081068      12.59687748
F       60.03890347      37.08468752      12.43867811
F       61.72467887      38.85791107      12.50195592
F       54.01121165      43.09287188       7.22664289
F       54.03458043      38.28451024       6.96350431
F       53.60509057      40.51099452       6.98529752
F       55.71716989      41.05163406       7.08123680
F       56.67000671      43.10200534       7.25503108
F       57.58462736      45.46212459       7.23039866
F       54.04379473      34.09939094       7.23908875
F       55.51411962      36.38532670       7.33925347
F       56.58033211      38.61517269       7.10284430
F       58.12388291      40.94946802       7.17650737
F       59.39515251      44.32543311       7.20590713
F       60.01856943      46.62514073       7.10984063
F       62.02573225      47.69002763       7.04443367
F       59.03487539      38.52088830       7.10690821
F       60.54938005      40.43097251       7.21110224
F       60.55472176      42.55932591       7.25020512
F       61.74875782      44.50500223       7.32134953
F       61.93461849      38.65782383       7.17142903
F       63.14913472      40.78329455       7.24344930
C       55.31894002      45.16443921      11.19790698
C       55.61055164      52.04387631      11.23347101
C       56.11336014      53.41890291      10.65634402
C       57.46430222      53.89759938      11.19744898
C       57.75948680      55.39008138      10.71075252
C       59.16073105      55.75121526      11.21143357
C       59.40893199      57.27488265      10.82087105
C       60.83413523      57.60008541      11.32944740
C       54.52943030      47.59241423      11.19858902
C       54.80189174      49.04422695      10.60610064
C       56.36315809      49.43450629      10.56817046
C       56.74005094      50.92191914      11.19625585
C       58.09252137      51.37994374      10.53928303
C       58.59704889      52.93147836      10.68657857
C       59.88887956      53.23518180      11.51402066
C       60.32729808      54.59272658      10.82169093
C       61.67535035      55.11977866      11.29078752
C       61.90269281      56.56879928      10.74414757
C       63.38201093      56.99589836      11.24272381
C       63.82799931      58.35427709      10.68244683
C       65.23402162      58.86202512      11.17993709
C       53.94221417      44.66143134      10.65308520
C       55.59942448      46.62697980      10.72095293
C       57.01927022      46.99010446      11.38478905
C       57.44352663      48.54189603      11.29849275
C       58.87989181      48.97525270      10.65804311
C       59.21601745      50.39289021      11.11553303
C       60.61724921      50.84869749      10.58204455
C       60.99722442      52.07606281      11.50315931
C       62.47611205      52.65146161      11.37481132
C       62.78719908      54.13978335      10.80836415
C       64.20545143      54.58248335      11.25048167
C       64.49058110      56.04532257      10.70931010
C       59.89985855      47.75847508      10.68609441
C       61.35101185      48.21779159      11.07069218
C       61.70246494      49.58742519      10.50364334
C       63.07343556      50.06927551      11.14185070
C       63.36852550      51.53707246      10.72334397
C       55.23204935      54.25629705       8.61939286
C       55.31581332      49.74097316       8.31530503
C       55.21738996      51.34027312       8.28786093
C       56.64490997      52.05158108       8.41922291
C       56.45860639      53.46122322       9.08839071
C       57.82685310      54.18805896       8.64165832
C       57.85339382      55.62437361       9.15870027
C       59.13438312      56.44652347       8.56683692
C       54.00901890      44.59281126       9.11096363
C       55.34509852      45.26478600       8.62905049
C       55.45487839      46.74199552       9.16010917
C       56.71723250      47.52968849       8.72874294
C       56.59841622      49.14955582       9.03467724
C       57.88143414      49.76680191       8.49496283
C       57.93543969      51.25260808       8.98285105
C       59.22597898      52.00486718       8.55362894
C       59.04210760      53.37751164       9.22730929
C       60.38765324      54.25133420       9.29089802
C       60.48452534      55.64016773       8.56214830
C       61.77477118      56.46684675       9.13785467
C       61.71032502      57.91361543       8.42932521
C       63.05974536      58.74691081       8.39836398
C       58.04182724      46.64478012       9.28919066
C       59.37338145      47.48632703       9.16970387
C       59.10300575      49.02870591       9.05526099
C       60.40951790      49.77565272       8.49524197
C       60.48428959      51.21343623       9.06562030
C       61.79536573      51.91840229       8.56545855
C       61.75580552      53.50030283       8.61024607
C       63.00125016      54.17399116       9.26815065
C       63.03717322      55.67380591       8.70923605
C       64.34650261      56.37539043       9.18498163
C       64.19059108      58.02920507       9.16344418
C       61.74335052      49.16032906       8.96082313
C       63.09323013      49.84374178       8.55510513
C       63.15214599      51.34294886       9.14126629
C       64.44237236      52.00403231       8.63273666
C       64.48860389      53.48459799       9.13661140
F       55.24265750      45.13009484      12.57110363
F       55.40867000      52.28205458      12.57152373
F       57.40134435      53.90359114      12.57229694
F       59.18336853      55.73471089      12.58775478
F       60.86776655      57.60700748      12.70492824
F       54.62859502      47.62760741      12.57248636
F       56.94143167      50.79604563      12.54346743
F       59.66948941      53.38934742      12.85532363
F       61.69054826      55.12929279      12.67295233
F       63.30698783      57.02454817      12.61615787
F       65.21542450      58.93638785      12.55358421
F       56.89936055      46.72526527      12.71770597
F       57.61399199      48.76012518      12.63938647
F       59.20456012      50.44559928      12.48119722
F       61.04082439      51.58016438      12.78127165
F       62.81153915      52.82078392      12.70148448
F       64.38229920      54.65649072      12.61230725
F       61.31539356      48.25036756      12.45410788
F       63.00116896      50.02359111      12.51738570
F       55.28770175      54.25855192       7.24207267
F       55.31107052      49.45019028       6.97893409
F       54.88158067      51.67667456       7.00072730
F       56.99365999      52.21731410       7.09666658
F       57.94649681      54.26768538       7.27046086
F       58.86111745      56.62780463       7.24582844
F       55.32028482      45.26507098       7.25451853
F       56.79060972      47.55100674       7.35468325
F       57.85682221      49.78085273       7.11827408
F       59.40037301      52.11514806       7.19193715
F       60.67164261      55.49111315       7.22133690
F       61.29505953      57.79082077       7.12527041
F       63.30222235      58.85570767       7.05986344
F       60.31136549      49.68656834       7.12233798
F       61.82587014      51.59665255       7.22653201
F       61.83121186      53.72500595       7.26563489
F       63.02524791      55.67068227       7.33677930
F       63.21110859      49.82350387       7.18685881
F       64.42562482      51.94897459       7.25887908
C       56.59543012      56.33011925      11.21333676
C       56.88704174      63.20955635      11.24890079
C       57.38985024      64.58458295      10.67177380
C       58.74079232      65.06327942      11.21287876
C       59.03597689      66.55576142      10.72618230
C       60.43722114      66.91689530      11.22686335
C       60.68542208      68.44056269      10.83630083
C       62.11062533      68.76576545      11.34487718
C       55.80592040      58.75809427      11.21401880
C       56.07838184      60.20990699      10.62153042
C       57.63964818      60.60018633      10.58360023
C       58.01654103      62.08759918      11.21168563
C       59.36901146      62.54562378      10.55471281
C       59.87353899      64.09715840      10.70200835
C       61.16536966      64.40086184      11.52945044
C       61.60378817      65.75840662      10.83712071
C       62.95184045      66.28545870      11.30621729
C       63.17918291      67.73447932      10.75957735
C       64.65850102      68.16157840      11.25815359
C       65.10448940      69.51995713      10.69787661
C       66.51051172      70.02770516      11.19536687
C       55.21870427      55.82711138      10.66851497
C       56.87591458      57.79265984      10.73638271
C       58.29576032      58.15578450      11.40021883
C       58.72001673      59.70757607      11.31392253
C       60.15638191      60.14093274      10.67347289
C       60.49250755      61.55857025      11.13096281
C       61.89373930      62.01437753      10.59747432
C       62.27371451      63.24174285      11.51858909
C       63.75260214      63.81714165      11.39024110
C       64.06368918      65.30546339      10.82379393
C       65.48194153      65.74816339      11.26591144
C       65.76707119      67.21100261      10.72473988
C       61.17634864      58.92415512      10.70152419
C       62.62750195      59.38347163      11.08612195
C       62.97895503      60.75310523      10.51907311
C       64.34992565      61.23495555      11.15728048
C       64.64501560      62.70275250      10.73877375
C       56.50853944      65.42197709       8.63482264
C       56.59230342      60.90665320       8.33073481
C       56.49388005      62.50595316       8.30329071
C       57.92140006      63.21726112       8.43465269
C       57.73509649      64.62690326       9.10382049
C       59.10334320      65.35373900       8.65708810
C       59.12988392      66.79005365       9.17413005
C       60.41087322      67.61220351       8.58226670
C       55.28550900      55.75849130       9.12639341
C       56.62158862      56.43046604       8.64448027
C       56.73136849      57.90767556       9.17553895
C       57.99372259      58.69536853       8.74417272
C       57.87490632      60.31523586       9.05010702
C       59.15792423      60.93248195       8.51039261
C       59.21192978      62.41828812       8.99828083
C       60.50246907      63.17054722       8.56905872
C       60.31859769      64.54319168       9.24273907
C       61.66414333      65.41701424       9.30632780
C       61.76101543      66.80584777       8.57757808
C       63.05126128      67.63252679       9.15328444
C       62.98681512      69.07929547       8.44475498
C       64.33623545      69.91259085       8.41379376
C       59.31831733      57.81046016       9.30462044
C       60.64987155      58.65200707       9.18513364
C       60.37949585      60.19438595       9.07069077
C       61.68600799      60.94133277       8.51067175
C       61.76077969      62.37911628       9.08105008
C       63.07185582      63.08408233       8.58088832
C       63.03229562      64.66598287       8.62567585
C       64.27774026      65.33967120       9.28358042
C       64.31366332      66.83948595       8.72466583
C       65.62299270      67.54107047       9.20041141
C       65.46708117      69.19488511       9.17887396
C       63.01984062      60.32600910       8.97625291
C       64.36972022      61.00942182       8.57053491
C       64.42863609      62.50862890       9.15669607
C       65.71886246      63.16971235       8.64816643
C       65.76509398      64.65027803       9.15204118
F       56.51914759      56.29577488      12.58653341
F       56.68516009      63.44773462      12.58695350
F       58.67783445      65.06927118      12.58772672
F       60.45985863      66.90039093      12.60318456
F       62.14425664      68.77268752      12.72035802
F       55.90508512      58.79328745      12.58791614
F       58.21792176      61.96172567      12.55889721
F       60.94597950      64.55502746      12.87075341
F       62.96703836      66.29497283      12.68838211
F       64.58347792      68.19022821      12.63158765
F       66.49191460      70.10206789      12.56901399
F       58.17585065      57.89094531      12.73313575
F       58.89048209      59.92580522      12.65481625
F       60.48105022      61.61127932      12.49662700
F       62.31731449      62.74584442      12.79670143
F       64.08802924      63.98646396      12.71691426
F       65.65878930      65.82217076      12.62773703
F       62.59188366      59.41604760      12.46953766
F       64.27765906      61.18927115      12.53281547
F       56.56419184      65.42423196       7.25750244
F       56.58756062      60.61587032       6.99436387
F       56.15807077      62.84235460       7.01615708
F       58.27015008      63.38299414       7.11209635
F       59.22298690      65.43336542       7.28589063
F       60.13760755      67.79348467       7.26125822
F       56.59677492      56.43075102       7.26994831
F       58.06709981      58.71668678       7.37011303
F       59.13331230      60.94653277       7.13370386
F       60.67686310      63.28082810       7.20736693
F       61.94813270      66.65679319       7.23676668
F       62.57154962      68.95650081       7.14070019
F       64.57871245      70.02138771       7.07529322
F       61.58785558      60.85224838       7.13776776
F       63.10236024      62.76233259       7.24196179
F       63.10770196      64.89068599       7.28106467
F       64.30173801      66.83636231       7.35220908
F       64.48759868      60.98918391       7.20228859
F       65.70211491      63.11465463       7.27430886
C       57.87192022      67.49579929      11.22876654
C       58.16353183      74.37523639      11.26433057
C       58.66634033      75.75026299      10.68720358
C       60.01728241      76.22895946      11.22830854
C       60.31246699      77.72144146      10.74161208
C       61.71371124      78.08257534      11.24229312
C       61.96191218      79.60624273      10.85173060
C       63.38711542      79.93144549      11.36030695
C       57.08241049      69.92377431      11.22944858
C       57.35487193      71.37558703      10.63696020
C       58.91613828      71.76586637      10.59903001
C       59.29303113      73.25327922      11.22711541
C       60.64550156      73.71130382      10.57014259
C       61.15002908      75.26283844      10.71743812
C       62.44185976      75.56654188      11.54488021
C       62.88027827      76.92408666      10.85255048
C       64.22833054      77.45113874      11.32164707
C       64.45567300      78.90015936      10.77500713
C       65.93499112      79.32725844      11.27358337
C       66.38097950      80.68563717      10.71330639
C       67.78700181      81.19338520      11.21079664
C       56.49519436      66.99279142      10.68394475
C       58.15240468      68.95833988      10.75181249
C       59.57225042      69.32146454      11.41564860
C       59.99650682      70.87325611      11.32935231
C       61.43287200      71.30661278      10.68890267
C       61.76899764      72.72425029      11.14639259
C       63.17022940      73.18005757      10.61290410
C       63.55020461      74.40742289      11.53401887
C       65.02909224      74.98282169      11.40567087
C       65.34017928      76.47114343      10.83922371
C       66.75843162      76.91384343      11.28134122
C       67.04356129      78.37668266      10.74016966
C       62.45283874      70.08983516      10.71695397
C       63.90399205      70.54915167      11.10155173
C       64.25544513      71.91878527      10.53450289
C       65.62641575      72.40063559      11.17271026
C       65.92150569      73.86843254      10.75420353
C       57.78502954      76.58765713       8.65025242
C       57.86879351      72.07233324       8.34616458
C       57.77037015      73.67163320       8.31872048
C       59.19789016      74.38294116       8.45008247
C       59.01158659      75.79258330       9.11925027
C       60.37983330      76.51941904       8.67251788
C       60.40637401      77.95573369       9.18955982
C       61.68736331      78.77788355       8.59769648
C       56.56199910      66.92417134       9.14182319
C       57.89807871      67.59614608       8.65991004
C       58.00785859      69.07335560       9.19096872
C       59.27021269      69.86104857       8.75960250
C       59.15139641      71.48091590       9.06553680
C       60.43441433      72.09816199       8.52582239
C       60.48841988      73.58396816       9.01371061
C       61.77895917      74.33622726       8.58448850
C       61.59508779      75.70887172       9.25816884
C       62.94063343      76.58269428       9.32175758
C       63.03750553      77.97152781       8.59300786
C       64.32775138      78.79820683       9.16871422
C       64.26330521      80.24497551       8.46018476
C       65.61272555      81.07827089       8.42922354
C       60.59480743      68.97614020       9.32005022
C       61.92636164      69.81768711       9.20056342
C       61.65598594      71.36006599       9.08612055
C       62.96249809      72.10701281       8.52610152
C       63.03726978      73.54479632       9.09647986
C       64.34834592      74.24976237       8.59631810
C       64.30878571      75.83166291       8.64110563
C       65.55423035      76.50535124       9.29901020
C       65.59015341      78.00516599       8.74009560
C       66.89948280      78.70675051       9.21584119
C       66.74357127      80.36056515       9.19430374
C       64.29633072      71.49168914       8.99168269
C       65.64621032      72.17510186       8.58596469
C       65.70512619      73.67430894       9.17212585
C       66.99535256      74.33539239       8.66359621
C       67.04158408      75.81595807       9.16747095
F       57.79563769      67.46145492      12.60196319
F       57.96165019      74.61341466      12.60238328
F       59.95432455      76.23495122      12.60315650
F       61.73634872      78.06607097      12.61861434
F       63.42074674      79.93836756      12.73578779
F       57.18157521      69.95896749      12.60334592
F       59.49441186      73.12740571      12.57432699
F       62.22246960      75.72070750      12.88618318
F       64.24352845      77.46065287      12.70381188
F       65.85996802      79.35590825      12.64701742
F       67.76840470      81.26774793      12.58444377
F       59.45234075      69.05662535      12.74856553
F       60.16697218      71.09148526      12.67024603
F       61.75754032      72.77695936      12.51205678
F       63.59380459      73.91152446      12.81213121
F       65.36451934      75.15214400      12.73234404
F       66.93527939      76.98785080      12.64316681
F       63.86837376      70.58172764      12.48496744
F       65.55414915      72.35495119      12.54824525
F       57.84068194      76.58991200       7.27293222
F       57.86405071      71.78155036       7.00979365
F       57.43456086      74.00803464       7.03158686
F       59.54664018      74.54867418       7.12752613
F       60.49947700      76.59904546       7.30132041
F       61.41409764      78.95916471       7.27668800
F       57.87326502      67.59643106       7.28537808
F       59.34358991      69.88236682       7.38554281
F       60.40980240      72.11221281       7.14913364
F       61.95335320      74.44650814       7.22279671
F       63.22462280      77.82247323       7.25219646
F       63.84803972      80.12218085       7.15612997
F       65.85520254      81.18706775       7.09072300
F       62.86434568      72.01792842       7.15319754
F       64.37885034      73.92801263       7.25739157
F       64.38419205      76.05636603       7.29649445
F       65.57822810      78.00204235       7.36763886
F       65.76408878      72.15486395       7.21771837
F       66.97860501      74.28033467       7.28973863
C       59.14841031      78.66147933      11.24419632
C       59.44002193      85.54091643      11.27976035
C       59.94283043      86.91594303      10.70263336
C       61.29377251      87.39463950      11.24373832
C       61.58895709      88.88712150      10.75704186
C       62.99020134      89.24825538      11.25772290
C       63.23840228      90.77192277      10.86716038
C       64.66360552      91.09712553      11.37573673
C       58.35890059      81.08945435      11.24487835
C       58.63136203      82.54126707      10.65238998
C       60.19262838      82.93154641      10.61445979
C       60.56952123      84.41895926      11.24254518
C       61.92199166      84.87698386      10.58557236
C       62.42651918      86.42851848      10.73286790
C       63.71834985      86.73222192      11.56030999
C       64.15676836      88.08976670      10.86798026
C       65.50482064      88.61681878      11.33707685
C       65.73216310      90.06583940      10.79043691
C       67.21148122      90.49293848      11.28901315
C       67.65746960      91.85131721      10.72873617
C       69.06349191      92.35906524      11.22622642
C       57.77168446      78.15847146      10.69937453
C       59.42889477      80.12401992      10.76724227
C       60.84874051      80.48714459      11.43107838
C       61.27299692      82.03893615      11.34478209
C       62.70936210      82.47229282      10.70433245
C       63.04548774      83.88993033      11.16182237
C       64.44671949      84.34573761      10.62833388
C       64.82669471      85.57310293      11.54944864
C       66.30558234      86.14850173      11.42110065
C       66.61666937      87.63682347      10.85465348
C       68.03492172      88.07952347      11.29677100
C       68.32005138      89.54236270      10.75559944
C       63.72932884      81.25551520      10.73238374
C       65.18048214      81.71483171      11.11698151
C       65.53193523      83.08446531      10.54993267
C       66.90290585      83.56631563      11.18814004
C       67.19799579      85.03411258      10.76963331
C       59.06151963      87.75333717       8.66568220
C       59.14528361      83.23801328       8.36159436
C       59.04686024      84.83731324       8.33415026
C       60.47438026      85.54862120       8.46551225
C       60.28807668      86.95826334       9.13468005
C       61.65632339      87.68509908       8.68794766
C       61.68286411      89.12141373       9.20498960
C       62.96385341      89.94356359       8.61312626
C       57.83848919      78.08985138       9.15725297
C       59.17456881      78.76182612       8.67533982
C       59.28434868      80.23903564       9.20639850
C       60.54670279      81.02672861       8.77503227
C       60.42788651      82.64659594       9.08096658
C       61.71090442      83.26384203       8.54125217
C       61.76490998      84.74964820       9.02914039
C       63.05544926      85.50190730       8.59991828
C       62.87157788      86.87455176       9.27359862
C       64.21712352      87.74837432       9.33718736
C       64.31399563      89.13720785       8.60843764
C       65.60424147      89.96388687       9.18414400
C       65.53979531      91.41065555       8.47561454
C       66.88921564      92.24395093       8.44465332
C       61.87129752      80.14182024       9.33548000
C       63.20285174      80.98336715       9.21599320
C       62.93247604      82.52574603       9.10155033
C       64.23898818      83.27269285       8.54153130
C       64.31375988      84.71047636       9.11190964
C       65.62483602      85.41544241       8.61174788
C       65.58527581      86.99734295       8.65653541
C       66.83072045      87.67103128       9.31443998
C       66.86664351      89.17084603       8.75552538
C       68.17597289      89.87243055       9.23127096
C       68.02006136      91.52624519       9.20973352
C       65.57282081      82.65736918       9.00711246
C       66.92270042      83.34078190       8.60139446
C       66.98161628      84.83998898       9.18755562
C       68.27184265      85.50107243       8.67902599
C       68.31807417      86.98163811       9.18290073
F       59.07212778      78.62713496      12.61739297
F       59.23814029      85.77909470      12.61781306
F       61.23081464      87.40063126      12.61858627
F       63.01283882      89.23175101      12.63404412
F       64.69723684      91.10404760      12.75121757
F       58.45806531      81.12464753      12.61877570
F       60.77090196      84.29308575      12.58975676
F       63.49895970      86.88638754      12.90161296
F       65.52001855      88.62633291      12.71924166
F       67.13645811      90.52158829      12.66244720
F       69.04489479      92.43342797      12.59987354
F       60.72883084      80.22230539      12.76399531
F       61.44346228      82.25716530      12.68567581
F       63.03403041      83.94263940      12.52748656
F       64.87029468      85.07720450      12.82756099
F       66.64100944      86.31782404      12.74777381
F       68.21176949      88.15353084      12.65859659
F       65.14486385      81.74740768      12.50039722
F       66.83063925      83.52063123      12.56367503
F       59.11717204      87.75559204       7.28836200
F       59.14054081      82.94723040       7.02522342
F       58.71105096      85.17371468       7.04701663
F       60.82313027      85.71435422       7.14295591
F       61.77596709      87.76472550       7.31675019
F       62.69058774      90.12484475       7.29211777
F       59.14975511      78.76211110       7.30080786
F       60.62008001      81.04804687       7.40097259
F       61.68629250      83.27789285       7.16456342
F       63.22984329      85.61218818       7.23822648
F       64.50111290      88.98815327       7.26762624
F       65.12452982      91.28786089       7.17155975
F       67.13169264      92.35274779       7.10615278
F       64.14083578      83.18360846       7.16862732
F       65.65534043      85.09369267       7.27282135
F       65.66068215      87.22204607       7.31192423
F       66.85471820      89.16772239       7.38306864
F       67.04057888      83.32054399       7.23314815
F       68.25509510      85.44601471       7.30516841
C       60.42490041      89.82715937      11.25962609
C       60.71651203      96.70659647      11.29519013
C       61.21932052      98.08162307      10.71806314
C       62.57026260      98.56031954      11.25916809
C       62.86544718     100.05280154      10.77247163
C       64.26669143     100.41393542      11.27315268
C       64.51489237     101.93760281      10.88259016
C       65.94009562     102.26280557      11.39116651
C       59.63539069      92.25513439      11.26030813
C       59.90785213      93.70694711      10.66781975
C       61.46911847      94.09722645      10.62988957
C       61.84601132      95.58463930      11.25797496
C       63.19848175      96.04266390      10.60100214
C       63.70300928      97.59419852      10.74829768
C       64.99483995      97.89790196      11.57573977
C       65.43325846      99.25544674      10.88341004
C       66.78131073      99.78249882      11.35250663
C       67.00865319     101.23151944      10.80586668
C       68.48797131     101.65861852      11.30444292
C       68.93395969     103.01699725      10.74416594
C       70.33998200     103.52474528      11.24165620
C       59.04817455      89.32415150      10.71480431
C       60.70538487      91.28969996      10.78267205
C       62.12523061      91.65282463      11.44650816
C       62.54948702      93.20461619      11.36021186
C       63.98585220      93.63797286      10.71976222
C       64.32197784      95.05561037      11.17725215
C       65.72320959      95.51141765      10.64376366
C       66.10318480      96.73878297      11.56487842
C       67.58207243      97.31418177      11.43653043
C       67.89315947      98.80250351      10.87008326
C       69.31141181      99.24520351      11.31220078
C       69.59654148     100.70804274      10.77102921
C       65.00581893      92.42119524      10.74781352
C       66.45697224      92.88051175      11.13241129
C       66.80842532      94.25014535      10.56536245
C       68.17939594      94.73199567      11.20356982
C       68.47448588      96.19979262      10.78506308
C       60.33800973      98.91901721       8.68111197
C       60.42177371      94.40369332       8.37702414
C       60.32335034      96.00299328       8.34958004
C       61.75087035      96.71430124       8.48094202
C       61.56456678      98.12394338       9.15010982
C       62.93281349      98.85077912       8.70337743
C       62.95935421     100.28709377       9.22041938
C       64.24034350     101.10924363       8.62855604
C       59.11497929      89.25553142       9.17268274
C       60.45105891      89.92750616       8.69076960
C       60.56083878      91.40471568       9.22182828
C       61.82319288      92.19240865       8.79046205
C       61.70437661      93.81227598       9.09639635
C       62.98739452      94.42952207       8.55668194
C       63.04140007      95.91532824       9.04457016
C       64.33193936      96.66758734       8.61534806
C       64.14806798      98.04023180       9.28902840
C       65.49361362      98.91405436       9.35261713
C       65.59048572     100.30288789       8.62386741
C       66.88073157     101.12956691       9.19957378
C       66.81628541     102.57633559       8.49104432
C       68.16570574     103.40963097       8.46008310
C       63.14778762      91.30750028       9.35090978
C       64.47934184      92.14904719       9.23142298
C       64.20896614      93.69142607       9.11698011
C       65.51547828      94.43837289       8.55696108
C       65.59024998      95.87615640       9.12733941
C       66.90132611      96.58112245       8.62717766
C       66.86176591      98.16302299       8.67196518
C       68.10721055      98.83671132       9.32986976
C       68.14313361     100.33652607       8.77095516
C       69.45246299     101.03811059       9.24670074
C       69.29655146     102.69192523       9.22516329
C       66.84931091      93.82304922       9.02254224
C       68.19919051      94.50646194       8.61682424
C       68.25810638      96.00566902       9.20298540
C       69.54833275      96.66675247       8.69445577
C       69.59456427      98.14731815       9.19833051
F       60.34861788      89.79281500      12.63282274
F       60.51463038      96.94477475      12.63324284
F       62.50730474      98.56631130      12.63401605
F       64.28932891     100.39743105      12.64947389
F       65.97372693     102.26972764      12.76664735
F       59.73455541      92.29032757      12.63420548
F       62.04739205      95.45876579      12.60518654
F       64.77544979      98.05206758      12.91704274
F       66.79650865      99.79201295      12.73467144
F       68.41294821     101.68726833      12.67787698
F       70.32138489     103.59910801      12.61530332
F       62.00532094      91.38798543      12.77942508
F       62.71995238      93.42284534      12.70110558
F       64.31052051      95.10831944      12.54291633
F       66.14678478      96.24288454      12.84299076
F       67.91749953      97.48350408      12.76320359
F       69.48825959      99.31921088      12.67402637
F       66.42135395      92.91308772      12.51582700
F       68.10712935      94.68631127      12.57910481
F       60.39366213      98.92127208       7.30379178
F       60.41703090      94.11291044       7.04065320
F       59.98754105      96.33939472       7.06244641
F       62.09962037      96.88003426       7.15838569
F       63.05245719      98.93040554       7.33217997
F       63.96707784     101.29052479       7.30754755
F       60.42624521      89.92779114       7.31623764
F       61.89657010      92.21372691       7.41640236
F       62.96278259      94.44357289       7.17999319
F       64.50633339      96.77786822       7.25365626
F       65.77760299     100.15383331       7.28305602
F       66.40101991     102.45354093       7.18698952
F       68.40818273     103.51842783       7.12158256
F       65.41732587      94.34928850       7.18405709
F       66.93183053      96.25937271       7.28825113
F       66.93717224      98.38772611       7.32735401
F       68.13120830     100.33340243       7.39849842
F       68.31706897      94.48622403       7.24857792
F       69.53158520      96.61169475       7.32059819
C       63.05496620      27.29045776      11.16650878
C       63.34657781      34.16989485      11.20207282
C       63.84938631      35.54492145      10.62494583
C       65.20032839      36.02361792      11.16605078
C       65.49551297      37.51609993      10.67935432
C       66.89675722      37.87723380      11.18003537
C       67.14495816      39.40090119      10.78947285
C       68.57016140      39.72610395      11.29804920
C       62.26545647      29.71843277      11.16719082
C       62.53791791      31.17024549      10.57470244
C       64.09918426      31.56052483      10.53677226
C       64.47607711      33.04793768      11.16485765
C       65.82854754      33.50596228      10.50788483
C       66.33307506      35.05749690      10.65518037
C       67.62490574      35.36120034      11.48262246
C       68.06332425      36.71874513      10.79029273
C       69.41137652      37.24579721      11.25938932
C       69.63871898      38.69481782      10.71274937
C       71.11803710      39.12191690      11.21132561
C       71.56402548      40.48029563      10.65104863
C       72.97004779      40.98804367      11.14853889
C       61.67824034      26.78744989      10.62168700
C       63.33545065      28.75299834      10.68955474
C       64.75529640      29.11612301      11.35339085
C       65.17955280      30.66791457      11.26709455
C       66.61591798      31.10127125      10.62664491
C       66.95204362      32.51890875      11.08413484
C       68.35327538      32.97471604      10.55064635
C       68.73325059      34.20208136      11.47176111
C       70.21213822      34.77748016      11.34341312
C       70.52322525      36.26580189      10.77696595
C       71.94147760      36.70850189      11.21908347
C       72.22660727      38.17134112      10.67791190
C       67.63588472      29.88449362      10.65469621
C       69.08703802      30.34381013      11.03929398
C       69.43849111      31.71344373      10.47224514
C       70.80946173      32.19529406      11.11045250
C       71.10455167      33.66309100      10.69194577
C       62.96807552      36.38231559       8.58799466
C       63.05183949      31.86699171       8.28390683
C       62.95341613      33.46629166       8.25646273
C       64.38093614      34.17759962       8.38782471
C       64.19463256      35.58724176       9.05699251
C       65.56287927      36.31407750       8.61026012
C       65.58941999      37.75039215       9.12730207
C       66.87040929      38.57254201       8.53543873
C       61.74504508      26.71882980       9.07956543
C       63.08112469      27.39080454       8.59765229
C       63.19090456      28.86801406       9.12871097
C       64.45325867      29.65570704       8.69734474
C       64.33444239      31.27557436       9.00327904
C       65.61746031      31.89282045       8.46356463
C       65.67146586      33.37862662       8.95145285
C       66.96200515      34.13088572       8.52223075
C       66.77813377      35.50353018       9.19591109
C       68.12367941      36.37735274       9.25949982
C       68.22055151      37.76618627       8.53075010
C       69.51079735      38.59286529       9.10645647
C       69.44635119      40.03963397       8.39792701
C       70.79577153      40.87292935       8.36696579
C       65.77785341      28.77079866       9.25779247
C       67.10940762      29.61234558       9.13830567
C       66.83903192      31.15472446       9.02386280
C       68.14554407      31.90167127       8.46384377
C       68.22031576      33.33945478       9.03422210
C       69.53139190      34.04442083       8.53406035
C       69.49183169      35.62632138       8.57884787
C       70.73727633      36.30000971       9.23675245
C       70.77319939      37.79982445       8.67783785
C       72.08252878      38.50140897       9.15358343
C       71.92661725      40.15522361       9.13204598
C       69.47937669      31.28634761       8.92942493
C       70.82925630      31.96976032       8.52370693
C       70.88817217      33.46896740       9.10986809
C       72.17839853      34.13005085       8.60133846
C       72.22463006      35.61061653       9.10521320
F       62.97868367      27.25611339      12.53970543
F       63.14469617      34.40807313      12.54012553
F       65.13737052      36.02960968      12.54089874
F       66.91939470      37.86072943      12.55635658
F       68.60379272      39.73302602      12.67353004
F       62.36462119      29.75362595      12.54108817
F       64.67745784      32.92206417      12.51206923
F       67.40551558      35.51536596      12.82392543
F       69.42657443      37.25531133      12.64155413
F       71.04301400      39.15056672      12.58475967
F       72.95145068      41.06240639      12.52218601
F       64.63538672      28.85128381      12.68630777
F       65.35001816      30.88614373      12.60798827
F       66.94058630      32.57161782      12.44979902
F       68.77685056      33.70618292      12.74987345
F       70.54756532      34.94680246      12.67008628
F       72.11832537      36.78250926      12.58090906
F       69.05141973      30.37638610      12.42270969
F       70.73719513      32.14960966      12.48598750
F       63.02372792      36.38457046       7.21067447
F       63.04709669      31.57620883       6.94753589
F       62.61760684      33.80269310       6.96932910
F       64.72968616      34.34333265       7.06526838
F       65.68252298      36.39370393       7.23906266
F       66.59714362      38.75382318       7.21443024
F       63.05631099      27.39108952       7.22312033
F       64.52663589      29.67702529       7.32328505
F       65.59284838      31.90687127       7.08687588
F       67.13639918      34.24116661       7.16053895
F       68.40766878      37.61713169       7.18993871
F       69.03108570      39.91683932       7.09387221
F       71.03824852      40.98172622       7.02846525
F       68.04739166      31.81258689       7.09093978
F       69.56189632      33.72267109       7.19513382
F       69.56723803      35.85102449       7.23423670
F       70.76127408      37.79670081       7.30538111
F       70.94713476      31.94952242       7.15546061
F       72.16165099      34.07499314       7.22748088
C       64.33145629      38.45613780      11.18193856
C       64.62306791      45.33557489      11.21750259
C       65.12587641      46.71060149      10.64037560
C       66.47681849      47.18929796      11.18148056
C       66.77200306      48.68177997      10.69478410
C       68.17324731      49.04291384      11.19546515
C       68.42144825      50.56658123      10.80490263
C       69.84665150      50.89178399      11.31347898
C       63.54194657      40.88411281      11.18262060
C       63.81440801      42.33592553      10.59013222
C       65.37567435      42.72620487      10.55220203
C       65.75256721      44.21361772      11.18028743
C       67.10503763      44.67164232      10.52331461
C       67.60956516      46.22317694      10.67061015
C       68.90139583      46.52688038      11.49805224
C       69.33981434      47.88442517      10.80572251
C       70.68786662      48.41147725      11.27481909
C       70.91520908      49.86049786      10.72817915
C       72.39452719      50.28759694      11.22675539
C       72.84051558      51.64597567      10.66647841
C       74.24653789      52.15372371      11.16396867
C       62.95473044      37.95312993      10.63711678
C       64.61194075      39.91867838      10.70498451
C       66.03178649      40.28180305      11.36882063
C       66.45604290      41.83359461      11.28252433
C       67.89240808      42.26695129      10.64207469
C       68.22853372      43.68458879      11.09956461
C       69.62976547      44.14039608      10.56607613
C       70.00974068      45.36776140      11.48719089
C       71.48862832      45.94316020      11.35884290
C       71.79971535      47.43148193      10.79239573
C       73.21796770      47.87418193      11.23451324
C       73.50309736      49.33702116      10.69334168
C       68.91237482      41.05017366      10.67012599
C       70.36352812      41.50949017      11.05472376
C       70.71498121      42.87912377      10.48767491
C       72.08595183      43.36097410      11.12588228
C       72.38104177      44.82877104      10.70737555
C       64.24456561      47.54799563       8.60342444
C       64.32832959      43.03267175       8.29933661
C       64.22990622      44.63197170       8.27189251
C       65.65742624      45.34327966       8.40325449
C       65.47112266      46.75292180       9.07242229
C       66.83936937      47.47975754       8.62568990
C       66.86591009      48.91607219       9.14273185
C       68.14689939      49.73822205       8.55086850
C       63.02153517      37.88450984       9.09499521
C       64.35761479      38.55648458       8.61308207
C       64.46739466      40.03369410       9.14414075
C       65.72974876      40.82138708       8.71277452
C       65.61093249      42.44125440       9.01870882
C       66.89395040      43.05850049       8.47899441
C       66.94795595      44.54430666       8.96688263
C       68.23849524      45.29656576       8.53766052
C       68.05462386      46.66921022       9.21134087
C       69.40016950      47.54303278       9.27492960
C       69.49704160      48.93186631       8.54617988
C       70.78728745      49.75854533       9.12188625
C       70.72284129      51.20531401       8.41335679
C       72.07226162      52.03860939       8.38239556
C       67.05434350      39.93647870       9.27322224
C       68.38589772      40.77802562       9.15373545
C       68.11552202      42.32040450       9.03929257
C       69.42203416      43.06735131       8.47927355
C       69.49680586      44.50513482       9.04965188
C       70.80788199      45.21010087       8.54949013
C       70.76832179      46.79200142       8.59427765
C       72.01376643      47.46568975       9.25218222
C       72.04968949      48.96550449       8.69326763
C       73.35901887      49.66708901       9.16901321
C       73.20310734      51.32090365       9.14747576
C       70.75586679      42.45202765       8.94485471
C       72.10574639      43.13544036       8.53913671
C       72.16466226      44.63464744       9.12529787
C       73.45488863      45.29573089       8.61676824
C       73.50112015      46.77629657       9.12064298
F       64.25517376      38.42179343      12.55513521
F       64.42118626      45.57375317      12.55555531
F       66.41386062      47.19528972      12.55632852
F       68.19588480      49.02640947      12.57178636
F       69.88028281      50.89870606      12.68895982
F       63.64111129      40.91930599      12.55651794
F       65.95394794      44.08774421      12.52749901
F       68.68200567      46.68104600      12.83935521
F       70.70306453      48.42099137      12.65698391
F       72.31950409      50.31624676      12.60018945
F       74.22794077      52.22808643      12.53761579
F       65.91187682      40.01696385      12.70173755
F       66.62650826      42.05182377      12.62341805
F       68.21707639      43.73729787      12.46522880
F       70.05334066      44.87186296      12.76530323
F       71.82405542      46.11248250      12.68551606
F       73.39481547      47.94818930      12.59633883
F       70.32790983      41.54206614      12.43813946
F       72.01368523      43.31528970      12.50141728
F       64.30021802      47.55025050       7.22610425
F       64.32358679      42.74188887       6.96296567
F       63.89409694      44.96837314       6.98475888
F       66.00617625      45.50901269       7.08069816
F       66.95901307      47.55938397       7.25449244
F       67.87363372      49.91950322       7.22986002
F       64.33280109      38.55676956       7.23855011
F       65.80312598      40.84270533       7.33871483
F       66.86933848      43.07255131       7.10230566
F       68.41288927      45.40684665       7.17596873
F       69.68415887      48.78281173       7.20536848
F       70.30757579      51.08251936       7.10930199
F       72.31473862      52.14740626       7.04389502
F       69.32388175      42.97826693       7.10636956
F       70.83838641      44.88835113       7.21056359
F       70.84372813      47.01670453       7.24966647
F       72.03776418      48.96238085       7.32081088
F       72.22362485      43.11520246       7.17089039
F       73.43814108      45.24067318       7.24291066
C       65.60794639      49.62181784      11.19736834
C       65.89955800      56.50125493      11.23293237
C       66.40236650      57.87628153      10.65580538
C       67.75330858      58.35497800      11.19691034
C       68.04849316      59.84746001      10.71021388
C       69.44973741      60.20859388      11.21089493
C       69.69793835      61.73226127      10.82033241
C       71.12314159      62.05746403      11.32890876
C       64.81843666      52.04979285      11.19805038
C       65.09089810      53.50160557      10.60556200
C       66.65216445      53.89188491      10.56763181
C       67.02905730      55.37929776      11.19571721
C       68.38152773      55.83732236      10.53874439
C       68.88605526      57.38885698      10.68603993
C       70.17788593      57.69256042      11.51348201
C       70.61630444      59.05010521      10.82115228
C       71.96435671      59.57715729      11.29024887
C       72.19169917      61.02617790      10.74360893
C       73.67101729      61.45327698      11.24218517
C       74.11700567      62.81165571      10.68190819
C       75.52302798      63.31940375      11.17939845
C       64.23122053      49.11880997      10.65254655
C       65.88843085      51.08435842      10.72041429
C       67.30827659      51.44748309      11.38425041
C       67.73253300      52.99927465      11.29795411
C       69.16889818      53.43263133      10.65750447
C       69.50502381      54.85026883      11.11499439
C       70.90625557      55.30607612      10.58150590
C       71.28623078      56.53344144      11.50262067
C       72.76511841      57.10884024      11.37427268
C       73.07620545      58.59716197      10.80782551
C       74.49445779      59.03986197      11.24994302
C       74.77958746      60.50270120      10.70877146
C       70.18886491      52.21585370      10.68555577
C       71.64001822      52.67517021      11.07015353
C       71.99147130      54.04480381      10.50310469
C       73.36244192      54.52665414      11.14131206
C       73.65753186      55.99445108      10.72280533
C       65.52105571      58.71367567       8.61885422
C       65.60481968      54.19835179       8.31476639
C       65.50639632      55.79765174       8.28732229
C       66.93391633      56.50895970       8.41868427
C       66.74761276      57.91860184       9.08785207
C       68.11585947      58.64543758       8.64111968
C       68.14240018      60.08175223       9.15816163
C       69.42338948      60.90390209       8.56629828
C       64.29802527      49.05018988       9.11042499
C       65.63410489      49.72216462       8.62851185
C       65.74388476      51.19937414       9.15957052
C       67.00623886      51.98706712       8.72820430
C       66.88742258      53.60693444       9.03413860
C       68.17044050      54.22418053       8.49442419
C       68.22444605      55.70998670       8.98231241
C       69.51498534      56.46224580       8.55309030
C       69.33111396      57.83489026       9.22677064
C       70.67665960      58.70871282       9.29035938
C       70.77353170      60.09754635       8.56160966
C       72.06377755      60.92422537       9.13731602
C       71.99933139      62.37099405       8.42878656
C       73.34875172      63.20428943       8.39782534
C       68.33083360      51.10215874       9.28865202
C       69.66238782      51.94370566       9.16916522
C       69.39201211      53.48608454       9.05472235
C       70.69852426      54.23303135       8.49470333
C       70.77329595      55.67081486       9.06508166
C       72.08437209      56.37578091       8.56491990
C       72.04481188      57.95768146       8.60970743
C       73.29025653      58.63136979       9.26761200
C       73.32617959      60.13118453       8.70869741
C       74.63550897      60.83276905       9.18444299
C       74.47959744      62.48658369       9.16290554
C       72.03235689      53.61770769       8.96028449
C       73.38223649      54.30112041       8.55456649
C       73.44115236      55.80032748       9.14072765
C       74.73137873      56.46141093       8.63219801
C       74.77761025      57.94197661       9.13607276
F       65.53166386      49.58747347      12.57056499
F       65.69767636      56.73943321      12.57098508
F       67.69035072      58.36096976      12.57175830
F       69.47237489      60.19208951      12.58721614
F       71.15677291      62.06438610      12.70438959
F       64.91760138      52.08498603      12.57194772
F       67.23043803      55.25342425      12.54292879
F       69.95849577      57.84672604      12.85478498
F       71.97955462      59.58667141      12.67241369
F       73.59599419      61.48192680      12.61561923
F       75.50443087      63.39376647      12.55304557
F       67.18836692      51.18264389      12.71716733
F       67.90299836      53.21750381      12.63884783
F       69.49356649      54.90297791      12.48065858
F       71.32983076      56.03754300      12.78073301
F       73.10054551      57.27816254      12.70094584
F       74.67130556      59.11386934      12.61176861
F       71.60439993      52.70774618      12.45356924
F       73.29017532      54.48096974      12.51684705
F       65.57670811      58.71593054       7.24153402
F       65.60007688      53.90756891       6.97839545
F       65.17058703      56.13405318       7.00018866
F       67.28266635      56.67469273       7.09612793
F       68.23550317      58.72506401       7.26992221
F       69.15012382      61.08518326       7.24528980
F       65.60929119      49.72244960       7.25397989
F       67.07961608      52.00838537       7.35414461
F       68.14582857      54.23823135       7.11773544
F       69.68937937      56.57252669       7.19139851
F       70.96064897      59.94849177       7.22079826
F       71.58406589      62.24819940       7.12473177
F       73.59122871      63.31308630       7.05932480
F       70.60037185      54.14394697       7.12179934
F       72.11487651      56.05403117       7.22599337
F       72.12021822      58.18238457       7.26509625
F       73.31425427      60.12806089       7.33624066
F       73.50011495      54.28088250       7.18632017
F       74.71463118      56.40635322       7.25834043
C       66.88443648      60.78749788      11.21279812
C       67.17604810      67.66693497      11.24836215
C       67.67885660      69.04196157      10.67123516
C       69.02979868      69.52065804      11.21234012
C       69.32498326      71.01314005      10.72564366
C       70.72622751      71.37427392      11.22632470
C       70.97442845      72.89794131      10.83576218
C       72.39963169      73.22314407      11.34433853
C       66.09492676      63.21547289      11.21348016
C       66.36738820      64.66728561      10.62099178
C       67.92865455      65.05756495      10.58306159
C       68.30554740      66.54497780      11.21114699
C       69.65801783      67.00300240      10.55417417
C       70.16254535      68.55453702      10.70146970
C       71.45437602      68.85824046      11.52891179
C       71.89279453      70.21578525      10.83658206
C       73.24084681      70.74283733      11.30567865
C       73.46818927      72.19185794      10.75903871
C       74.94750739      72.61895702      11.25761495
C       75.39349577      73.97733575      10.69733797
C       76.79951808      74.48508379      11.19482822
C       65.50771063      60.28449001      10.66797633
C       67.16492094      62.25003846      10.73584407
C       68.58476668      62.61316313      11.39968018
C       69.00902309      64.16495469      11.31338389
C       70.44538827      64.59831137      10.67293425
C       70.78151391      66.01594887      11.13042417
C       72.18274566      66.47175616      10.59693568
C       72.56272088      67.69912148      11.51805045
C       74.04160851      68.27452028      11.38970245
C       74.35269554      69.76284201      10.82325529
C       75.77094789      70.20554201      11.26537280
C       76.05607755      71.66838124      10.72420124
C       71.46535501      63.38153374      10.70098554
C       72.91650831      63.84085026      11.08558331
C       73.26796140      65.21048385      10.51853447
C       74.63893202      65.69233418      11.15674184
C       74.93402196      67.16013112      10.73823511
C       66.79754580      69.87935571       8.63428400
C       66.88130978      65.36403183       8.33019616
C       66.78288641      66.96333178       8.30275206
C       68.21040643      67.67463975       8.43411405
C       68.02410285      69.08428188       9.10328185
C       69.39234956      69.81111762       8.65654946
C       69.41889028      71.24743227       9.17359140
C       70.69987958      72.06958213       8.58172806
C       65.57451536      60.21586992       9.12585477
C       66.91059498      60.88784466       8.64394162
C       67.02037485      62.36505418       9.17500030
C       68.28272896      63.15274716       8.74363408
C       68.16391268      64.77261448       9.04956838
C       69.44693059      65.38986057       8.50985397
C       69.50093615      66.87566674       8.99774219
C       70.79147544      67.62792584       8.56852008
C       70.60760406      69.00057030       9.24220042
C       71.95314970      69.87439286       9.30578916
C       72.05002180      71.26322639       8.57703944
C       73.34026764      72.08990541       9.15274580
C       73.27582148      73.53667409       8.44421634
C       74.62524181      74.36996947       8.41325512
C       69.60732370      62.26783879       9.30408180
C       70.93887791      63.10938570       9.18459500
C       70.66850221      64.65176458       9.07015213
C       71.97501436      65.39871139       8.51013310
C       72.04978605      66.83649490       9.08051144
C       73.36086219      67.54146095       8.58034968
C       73.32130198      69.12336150       8.62513721
C       74.56674662      69.79704983       9.28304178
C       74.60266968      71.29686457       8.72412718
C       75.91199906      71.99844909       9.19987276
C       75.75608754      73.65226373       9.17833532
C       73.30884698      64.78338773       8.97571427
C       74.65872659      65.46680045       8.56999627
C       74.71764245      66.96600752       9.15615743
C       76.00786882      67.62709097       8.64762779
C       76.05410034      69.10765665       9.15150253
F       66.80815395      60.75315351      12.58599477
F       66.97416646      67.90511325      12.58641486
F       68.96684081      69.52664980      12.58718808
F       70.74886499      71.35776955      12.60264592
F       72.43326301      73.23006614      12.71981937
F       66.19409148      63.25066607      12.58737750
F       68.50692813      66.41910429      12.55835857
F       71.23498587      69.01240608      12.87021476
F       73.25604472      70.75235145      12.68784346
F       74.87248428      72.64760684      12.63104900
F       76.78092096      74.55944651      12.56847535
F       68.46485701      62.34832393      12.73259711
F       69.17948845      64.38318385      12.65427761
F       70.77005658      66.06865795      12.49608836
F       72.60632085      67.20322304      12.79616279
F       74.37703561      68.44384258      12.71637562
F       75.94779566      70.27954938      12.62719839
F       72.88089002      63.87342622      12.46899902
F       74.56666542      65.64664978      12.53227683
F       66.85319821      69.88161058       7.25696380
F       66.87656698      65.07324895       6.99382523
F       66.44707713      67.29973322       7.01561843
F       68.55915644      67.84037277       7.11155771
F       69.51199327      69.89074405       7.28535199
F       70.42661391      72.25086330       7.26071957
F       66.88578128      60.88812964       7.26940966
F       68.35610618      63.17406541       7.36957439
F       69.42231867      65.40391139       7.13316522
F       70.96586946      67.73820673       7.20682829
F       72.23713907      71.11417181       7.23622804
F       72.86055599      73.41387944       7.14016155
F       74.86771881      74.47876634       7.07475458
F       71.87686195      65.30962701       7.13722912
F       73.39136660      67.21971121       7.24142315
F       73.39670832      69.34806461       7.28052603
F       74.59074437      71.29374093       7.35167044
F       74.77660505      65.44656254       7.20174995
F       75.99112127      67.57203326       7.27377021
C       68.16092658      71.95317792      11.22822790
C       68.45253820      78.83261501      11.26379193
C       68.95534669      80.20764161      10.68666494
C       70.30628877      80.68633808      11.22776989
C       70.60147335      82.17882009      10.74107343
C       72.00271760      82.53995396      11.24175448
C       72.25091854      84.06362135      10.85119196
C       73.67612179      84.38882412      11.35976831
C       67.37141686      74.38115293      11.22890993
C       67.64387830      75.83296565      10.63642155
C       69.20514464      76.22324499      10.59849137
C       69.58203749      77.71065784      11.22657676
C       70.93450792      78.16868244      10.56960394
C       71.43903545      79.72021706      10.71689948
C       72.73086612      80.02392050      11.54434157
C       73.16928463      81.38146529      10.85201184
C       74.51733690      81.90851737      11.32110843
C       74.74467937      83.35753799      10.77446848
C       76.22399748      83.78463706      11.27304472
C       76.66998586      85.14301579      10.71276774
C       78.07600817      85.65076383      11.21025800
C       66.78420072      71.45017005      10.68340611
C       68.44141104      73.41571850      10.75127385
C       69.86125678      73.77884317      11.41510996
C       70.28551319      75.33063473      11.32881367
C       71.72187837      75.76399141      10.68836403
C       72.05800401      77.18162891      11.14585395
C       73.45923576      77.63743620      10.61236546
C       73.83921097      78.86480152      11.53348022
C       75.31809860      79.44020032      11.40513223
C       75.62918564      80.92852205      10.83868506
C       77.04743798      81.37122205      11.28080258
C       77.33256765      82.83406128      10.73963101
C       72.74184510      74.54721378      10.71641532
C       74.19299841      75.00653030      11.10101309
C       74.54445149      76.37616389      10.53396425
C       75.91542211      76.85801422      11.17217162
C       76.21051206      78.32581116      10.75366489
C       68.07403590      81.04503575       8.64971378
C       68.15779988      76.52971187       8.34562594
C       68.05937651      78.12901182       8.31818184
C       69.48689652      78.84031979       8.44954383
C       69.30059295      80.24996192       9.11871163
C       70.66883966      80.97679766       8.67197924
C       70.69538038      82.41311231       9.18902118
C       71.97636967      83.23526217       8.59715784
C       66.85100546      71.38154997       9.14128455
C       68.18708508      72.05352470       8.65937140
C       68.29686495      73.53073422       9.19043008
C       69.55921905      74.31842720       8.75906385
C       69.44040278      75.93829452       9.06499815
C       70.72342069      76.55554061       8.52528374
C       70.77742624      78.04134678       9.01317196
C       72.06796553      78.79360588       8.58394986
C       71.88409415      80.16625034       9.25763020
C       73.22963979      81.04007290       9.32121893
C       73.32651189      82.42890643       8.59246921
C       74.61675774      83.25558545       9.16817558
C       74.55231158      84.70235413       8.45964612
C       75.90173191      85.53564951       8.42868490
C       70.88381379      73.43351883       9.31951158
C       72.21536801      74.27506574       9.20002478
C       71.94499231      75.81744462       9.08558191
C       73.25150445      76.56439143       8.52556288
C       73.32627615      78.00217494       9.09594122
C       74.63735228      78.70714099       8.59577946
C       74.59779208      80.28904154       8.64056698
C       75.84323672      80.96272987       9.29847156
C       75.87915978      82.46254461       8.73955696
C       77.18848916      83.16412913       9.21530254
C       77.03257763      84.81794377       9.19376509
C       74.58533708      75.94906777       8.99114404
C       75.93521668      76.63248049       8.58542604
C       75.99413255      78.13168756       9.17158720
C       77.28435892      78.79277101       8.66305757
C       77.33059044      80.27333669       9.16693231
F       68.08464405      71.91883355      12.60142454
F       68.25065655      79.07079329      12.60184464
F       70.24333091      80.69232984      12.60261785
F       72.02535508      82.52344959      12.61807570
F       73.70975310      84.39574618      12.73524915
F       67.47058158      74.41634611      12.60280728
F       69.78341822      77.58478433      12.57378834
F       72.51147596      80.17808612      12.88564454
F       74.53253482      81.91803149      12.70327324
F       76.14897438      83.81328688      12.64647878
F       78.05741106      85.72512655      12.58390512
F       69.74134711      73.51400397      12.74802688
F       70.45597855      75.54886389      12.66970738
F       72.04654668      77.23433799      12.51151813
F       73.88281095      78.36890308      12.81159256
F       75.65352570      79.60952262      12.73180539
F       77.22428576      81.44522942      12.64262817
F       74.15738012      75.03910626      12.48442880
F       75.84315552      76.81232982      12.54770661
F       68.12968830      81.04729062       7.27239358
F       68.15305708      76.23892899       7.00925500
F       67.72356723      78.46541326       7.03104821
F       69.83564654      79.00605281       7.12698749
F       70.78848336      81.05642409       7.30078177
F       71.70310401      83.41654334       7.27614935
F       68.16227138      72.05380968       7.28483944
F       69.63259627      74.33974545       7.38500416
F       70.69880876      76.56959143       7.14859499
F       72.24235956      78.90388677       7.22225806
F       73.51362916      82.27985185       7.25165782
F       74.13704608      84.57955948       7.15559133
F       76.14420891      85.64444638       7.09018436
F       73.15335204      76.47530705       7.15265890
F       74.66785670      78.38539125       7.25685293
F       74.67319841      80.51374465       7.29595581
F       75.86723447      82.45942097       7.36710022
F       76.05309514      76.61224258       7.21717973
F       77.26761137      78.73771330       7.28919999
C       69.43741668      83.11885796      11.24365767
C       69.72902829      89.99829505      11.27922171
C       70.23183679      91.37332165      10.70209472
C       71.58277887      91.85201812      11.24319967
C       71.87796345      93.34450013      10.75650321
C       73.27920770      93.70563400      11.25718426
C       73.52740864      95.22930139      10.86662174
C       74.95261188      95.55450416      11.37519809
C       68.64790695      85.54683297      11.24433971
C       68.92036839      86.99864569      10.65185133
C       70.48163474      87.38892503      10.61392115
C       70.85852759      88.87633788      11.24200654
C       72.21099802      89.33436248      10.58503372
C       72.71552554      90.88589710      10.73232926
C       74.00735622      91.18960054      11.55977135
C       74.44577473      92.54714533      10.86744162
C       75.79382700      93.07419741      11.33653821
C       76.02116946      94.52321803      10.78989826
C       77.50048758      94.95031710      11.28847450
C       77.94647596      96.30869583      10.72819752
C       79.35249827      96.81644387      11.22568778
C       68.06069082      82.61585009      10.69883589
C       69.71790113      84.58139854      10.76670363
C       71.13774688      84.94452321      11.43053974
C       71.56200328      86.49631477      11.34424344
C       72.99836846      86.92967145      10.70379380
C       73.33449410      88.34730895      11.16128373
C       74.73572586      88.80311624      10.62779524
C       75.11570107      90.03048156      11.54891000
C       76.59458870      90.60588036      11.42056201
C       76.90567573      92.09420209      10.85411484
C       78.32392808      92.53690209      11.29623236
C       78.60905775      93.99974132      10.75506079
C       74.01833520      85.71289382      10.73184510
C       75.46948850      86.17221034      11.11644287
C       75.82094159      87.54184393      10.54939403
C       77.19191221      88.02369426      11.18760139
C       77.48700215      89.49149120      10.76909466
C       69.35052600      92.21071579       8.66514355
C       69.43428997      87.69539191       8.36105572
C       69.33586661      89.29469186       8.33361162
C       70.76338662      90.00599983       8.46497360
C       70.57708304      91.41564196       9.13414140
C       71.94532975      92.14247770       8.68740901
C       71.97187047      93.57879235       9.20445096
C       73.25285977      94.40094221       8.61258762
C       68.12749555      82.54723001       9.15671432
C       69.46357517      83.21920474       8.67480118
C       69.57335504      84.69641426       9.20585986
C       70.83570915      85.48410724       8.77449363
C       70.71689287      87.10397456       9.08042793
C       71.99991079      87.72122065       8.54071352
C       72.05391634      89.20702682       9.02860174
C       73.34445563      89.95928592       8.59937964
C       73.16058425      91.33193038       9.27305998
C       74.50612989      92.20575294       9.33664871
C       74.60300199      93.59458647       8.60789899
C       75.89324783      94.42126549       9.18360536
C       75.82880167      95.86803417       8.47507590
C       77.17822201      96.70132955       8.44411467
C       72.16030389      84.59919887       9.33494136
C       73.49185810      85.44074578       9.21545456
C       73.22148240      86.98312466       9.10101168
C       74.52799455      87.73007147       8.54099266
C       74.60276624      89.16785498       9.11137099
C       75.91384238      89.87282103       8.61120924
C       75.87428217      91.45472158       8.65599676
C       77.11972681      92.12840991       9.31390134
C       77.15564987      93.62822465       8.75498674
C       78.46497926      94.32980917       9.23073232
C       78.30906773      95.98362382       9.20919487
C       75.86182717      87.11474781       9.00657382
C       77.21170678      87.79816053       8.60085582
C       77.27062265      89.29736760       9.18701698
C       78.56084901      89.95845105       8.67848735
C       78.60708054      91.43901673       9.18236209
F       69.36113415      83.08451359      12.61685432
F       69.52714665      90.23647333      12.61727442
F       71.51982100      91.85800989      12.61804763
F       73.30184518      93.68912963      12.63350547
F       74.98624320      95.56142622      12.75067893
F       68.74707167      85.58202615      12.61823705
F       71.05990832      88.75046437      12.58921812
F       73.78796606      91.34376616      12.90107432
F       75.80902491      93.08371153      12.71870302
F       77.42546448      94.97896692      12.66190856
F       79.33390116      96.89080659      12.59933490
F       71.01783720      84.67968401      12.76345666
F       71.73246864      86.71454393      12.68513716
F       73.32303677      88.40001803      12.52694791
F       75.15930104      89.53458312      12.82702234
F       76.93001580      90.77520267      12.74723517
F       78.50077585      92.61090946      12.65805795
F       75.43387021      86.20478630      12.49985857
F       77.11964561      87.97800986      12.56313639
F       69.40617840      92.21297066       7.28782336
F       69.42954717      87.40460903       7.02468478
F       69.00005732      89.63109330       7.04647799
F       71.11213664      90.17173285       7.14241727
F       72.06497346      92.22210413       7.31621155
F       72.97959410      94.58222338       7.29157913
F       69.43876147      83.21948972       7.30026922
F       70.90908637      85.50542549       7.40043394
F       71.97529886      87.73527147       7.16402477
F       73.51884966      90.06956681       7.23768784
F       74.79011926      93.44553189       7.26708760
F       75.41353618      95.74523952       7.17102110
F       77.42069900      96.81012642       7.10561414
F       74.42984214      87.64098709       7.16808867
F       75.94434679      89.55107129       7.27228271
F       75.94968851      91.67942469       7.31138559
F       77.14372456      93.62510101       7.38252999
F       77.32958524      87.77792262       7.23260950
F       78.54410147      89.90339334       7.30462977
C       70.71390677      94.28453800      11.25908745
C       71.00551839     101.16397509      11.29465148
C       71.50832689     102.53900169      10.71752449
C       72.85926897     103.01769816      11.25862945
C       73.15445354     104.51018017      10.77193299
C       74.55569779     104.87131404      11.27261404
C       74.80389873     106.39498143      10.88205152
C       76.22910198     106.72018420      11.39062787
C       69.92439705      96.71251301      11.25976949
C       70.19685849      98.16432573      10.66728111
C       71.75812483      98.55460507      10.62935092
C       72.13501769     100.04201792      11.25743632
C       73.48748811     100.50004252      10.60046350
C       73.99201564     102.05157714      10.74775904
C       75.28384631     102.35528058      11.57520113
C       75.72226482     103.71282537      10.88287140
C       77.07031710     104.23987745      11.35196798
C       77.29765956     105.68889807      10.80532804
C       78.77697767     106.11599714      11.30390428
C       79.22296606     107.47437587      10.74362730
C       80.62898837     107.98212391      11.24111756
C       69.33718092      93.78153013      10.71426567
C       70.99439123      95.74707858      10.78213340
C       72.41423697      96.11020325      11.44596952
C       72.83849338      97.66199481      11.35967322
C       74.27485856      98.09535149      10.71922358
C       74.61098420      99.51298899      11.17671350
C       76.01221595      99.96879628      10.64322502
C       76.39219116     101.19616160      11.56433978
C       77.87107880     101.77156040      11.43599179
C       78.18216583     103.25988213      10.86954462
C       79.60041818     103.70258213      11.31166213
C       79.88554784     105.16542136      10.77049057
C       75.29482529      96.87857386      10.74727488
C       76.74597860      97.33789038      11.13187264
C       77.09743168      98.70752397      10.56482380
C       78.46840230      99.18937430      11.20303117
C       78.76349225     100.65717124      10.78452444
C       70.62701609     103.37639583       8.68057333
C       70.71078007      98.86107195       8.37648550
C       70.61235670     100.46037190       8.34904140
C       72.03987671     101.17167987       8.48040338
C       71.85357314     102.58132201       9.14957118
C       73.22181985     103.30815774       8.70283879
C       73.24836057     104.74447239       9.21988074
C       74.52934987     105.56662225       8.62801739
C       69.40398565      93.71291005       9.17214410
C       70.74006527      94.38488478       8.69023096
C       70.84984514      95.86209430       9.22128964
C       72.11219924      96.64978728       8.78992341
C       71.99338297      98.26965460       9.09585771
C       73.27640088      98.88690069       8.55614330
C       73.33040643     100.37270686       9.04403152
C       74.62094572     101.12496596       8.61480941
C       74.43707434     102.49761042       9.28848976
C       75.78261998     103.37143298       9.35207849
C       75.87949208     104.76026651       8.62332877
C       77.16973793     105.58694553       9.19903514
C       77.10529177     107.03371421       8.49050567
C       78.45471210     107.86700959       8.45954445
C       73.43679398      95.76487891       9.35037113
C       74.76834820      96.60642582       9.23088434
C       74.49797250      98.14880470       9.11644146
C       75.80448464      98.89575151       8.55642244
C       75.87925634     100.33353502       9.12680077
C       77.19033247     101.03850107       8.62663902
C       77.15077227     102.62040162       8.67142654
C       78.39621691     103.29408995       9.32933111
C       78.43213997     104.79390469       8.77041652
C       79.74146935     105.49548921       9.24616210
C       79.58555782     107.14930386       9.22462465
C       77.13831727      98.28042785       9.02200360
C       78.48819687      98.96384057       8.61628560
C       78.54711274     100.46304764       9.20244676
C       79.83733911     101.12413109       8.69391713
C       79.88357063     102.60469677       9.19779187
F       70.63762424      94.25019363      12.63228410
F       70.80363674     101.40215337      12.63270420
F       72.79631110     103.02368993      12.63347741
F       74.57833528     104.85480967      12.64893525
F       76.26273329     106.72710627      12.76610871
F       70.02356177      96.74770619      12.63366683
F       72.33639841      99.91614441      12.60464790
F       75.06445615     102.50944620      12.91650410
F       77.08551501     104.24939157      12.73413280
F       78.70195457     106.14464696      12.67733834
F       80.61039125     108.05648663      12.61476468
F       72.29432730      95.84536405      12.77888644
F       73.00895874      97.88022397      12.70056694
F       74.59952687      99.56569807      12.54237769
F       76.43579114     100.70026316      12.84245212
F       78.20650590     101.94088271      12.76266495
F       79.77726595     103.77658950      12.67348772
F       76.71036031      97.37046634      12.51528835
F       78.39613571      99.14368990      12.57856617
F       70.68266849     103.37865070       7.30325314
F       70.70603727      98.57028907       7.04011456
F       70.27654742     100.79677334       7.06190777
F       72.38862673     101.33741289       7.15784705
F       73.34146355     103.38778417       7.33164133
F       74.25608420     105.74790342       7.30700891
F       70.71525157      94.38516976       7.31569900
F       72.18557646      96.67110553       7.41586372
F       73.25178896      98.90095151       7.17945455
F       74.79533975     101.23524685       7.25311762
F       76.06660935     104.61121193       7.28251737
F       76.69002627     106.91091956       7.18645088
F       78.69718910     107.97580646       7.12104391
F       75.70633223      98.80666713       7.18351845
F       77.22083689     100.71675133       7.28771248
F       77.22617861     102.84510473       7.32681536
F       78.42021466     104.79078105       7.39795977
F       78.60607533      98.94360266       7.24803928
F       79.82059156     101.06907338       7.32005955
