C  F                                    
   1.00000000000000     
     7.0599692081244472    0.0026820334711790    0.0093901771836843
     3.5276988087897334    6.1123952762823768   -0.1916600731488929
     0.2761209977558209   -0.5035828374532296   26.8618808390454618
   C    F 
    28    18
Direct
  0.4152657307796013  0.9290233000325260  0.4633940603929508
  0.5885045571465765  0.1791342315073368  0.4633985767096684
  0.4585763204639687  0.6779411003741914  0.4547908590274489
  0.0472120694295340  0.7958096064186836  0.4547921173980786
  0.3407007129373073  0.3844245136657498  0.4547896624660697
  0.8386483829285953  0.7557842056605406  0.4633910441363537
  0.1730459599116363  0.0938556112336245  0.4823412241690354
  0.9980247666838148  0.0542266761657226  0.4580821686563941
  0.7461309300673944  0.2620698626978746  0.4823477646793359
  0.7157584955886104  0.4696471303855843  0.4580868400925273
  0.6104742195835279  0.9598953022547198  0.4869151511826770
  0.2786223388236844  0.6244800067405410  0.4775800316070873
  0.1311548836665208  0.3365045791492688  0.4580808225506428
  0.9143688055250492  0.5207478882613841  0.4823386115199932
  0.6015686296369060  0.9726694010300166  0.5440865980199495
  0.2697120652008455  0.6372557517555215  0.5347518133306599
  0.1644509543769190  0.2606416585645382  0.5635819125772030
  0.9658123902762250  0.5033254686618552  0.5393193116792776
  0.1340247865031241  0.0764200812806978  0.5393204824139358
  0.8821265110035785  0.1275253289172569  0.5635915920670415
  0.7490342469194272  0.5429095928574910  0.5635835026691836
  0.7071144061251324  0.3350994394550119  0.5393271480985132
  0.4216150363673210  0.2127160454790575  0.5668760738505318
  0.2916503551758453  0.8413834762872678  0.5582713816267018
  0.0415426154499350  0.6681511723693606  0.5582690382469010
  0.5394647690204785  0.8013573346677898  0.5668770784664987
  0.4649049868570746  0.4180120218962126  0.5582766967866496
  0.8329800519431420  0.9192233126233778  0.5668782250624328
  0.0116099299054896  0.0747841457979223  0.4083432925352441
  0.7551918199310814  0.4210242491103202  0.4083477865647062
  0.1014302985274921  0.3311833957135591  0.4083413122648272
  0.7832425330457727  0.7331395815924516  0.4153215055482133
  0.0783613239893426  0.7461423840283468  0.4046987886530304
  0.4279787823754694  0.6818462573923488  0.4046953947016464
  0.4108620020381555  0.9930887875177082  0.4153252860909492
  0.6708365091699540  0.1054681308413141  0.4153329578415030
  0.3636723194946714  0.3965284281907457  0.4046956546667193
  0.5165331428237658  0.8509729452741656  0.6169694753813537
  0.2093091839025386  0.8640365035332911  0.6063369167940077
  0.4693503462422177  0.4916605518656533  0.6063428268799753
  0.8018784884158082  0.9152238593245013  0.6169694953878629
  0.0969771141406332  0.6040513668657151  0.6063354737573224
  0.4522689310684601  0.2005696661825143  0.6169681219065810
  0.1250177159171645  0.2659108684593052  0.6133188186825875
  0.7787783046073800  0.5223751345288049  0.6133213236690770
  0.8685323795128485  0.1761516894875447  0.6133289868948055
 
  0.00000000E+00  0.00000000E+00  0.00000000E+00
  0.00000000E+00  0.00000000E+00  0.00000000E+00
  0.00000000E+00  0.00000000E+00  0.00000000E+00
  0.00000000E+00  0.00000000E+00  0.00000000E+00
  0.00000000E+00  0.00000000E+00  0.00000000E+00
  0.00000000E+00  0.00000000E+00  0.00000000E+00
  0.00000000E+00  0.00000000E+00  0.00000000E+00
  0.00000000E+00  0.00000000E+00  0.00000000E+00
  0.00000000E+00  0.00000000E+00  0.00000000E+00
  0.00000000E+00  0.00000000E+00  0.00000000E+00
  0.00000000E+00  0.00000000E+00  0.00000000E+00
  0.00000000E+00  0.00000000E+00  0.00000000E+00
  0.00000000E+00  0.00000000E+00  0.00000000E+00
  0.00000000E+00  0.00000000E+00  0.00000000E+00
  0.00000000E+00  0.00000000E+00  0.00000000E+00
  0.00000000E+00  0.00000000E+00  0.00000000E+00
  0.00000000E+00  0.00000000E+00  0.00000000E+00
  0.00000000E+00  0.00000000E+00  0.00000000E+00
  0.00000000E+00  0.00000000E+00  0.00000000E+00
  0.00000000E+00  0.00000000E+00  0.00000000E+00
  0.00000000E+00  0.00000000E+00  0.00000000E+00
  0.00000000E+00  0.00000000E+00  0.00000000E+00
  0.00000000E+00  0.00000000E+00  0.00000000E+00
  0.00000000E+00  0.00000000E+00  0.00000000E+00
  0.00000000E+00  0.00000000E+00  0.00000000E+00
  0.00000000E+00  0.00000000E+00  0.00000000E+00
  0.00000000E+00  0.00000000E+00  0.00000000E+00
  0.00000000E+00  0.00000000E+00  0.00000000E+00
  0.00000000E+00  0.00000000E+00  0.00000000E+00
  0.00000000E+00  0.00000000E+00  0.00000000E+00
  0.00000000E+00  0.00000000E+00  0.00000000E+00
  0.00000000E+00  0.00000000E+00  0.00000000E+00
  0.00000000E+00  0.00000000E+00  0.00000000E+00
  0.00000000E+00  0.00000000E+00  0.00000000E+00
  0.00000000E+00  0.00000000E+00  0.00000000E+00
  0.00000000E+00  0.00000000E+00  0.00000000E+00
  0.00000000E+00  0.00000000E+00  0.00000000E+00
  0.00000000E+00  0.00000000E+00  0.00000000E+00
  0.00000000E+00  0.00000000E+00  0.00000000E+00
  0.00000000E+00  0.00000000E+00  0.00000000E+00
  0.00000000E+00  0.00000000E+00  0.00000000E+00
  0.00000000E+00  0.00000000E+00  0.00000000E+00
  0.00000000E+00  0.00000000E+00  0.00000000E+00
  0.00000000E+00  0.00000000E+00  0.00000000E+00
  0.00000000E+00  0.00000000E+00  0.00000000E+00
  0.00000000E+00  0.00000000E+00  0.00000000E+00
