C  F 
 1.0000000000000000
     7.0379958231111157    0.0048677909943692    0.0088551133783743
     3.5186326065185805    6.0937559702020829   -0.1911336178859080
     0.2728380565517105   -0.4928900554395093   27.0325540694652844
 C   F  
  28  18
Cartesian
  6.3192217699634670  5.4346902939694743 12.3633462263474261
  4.8991534251946236  0.8654740482550769 12.5059639023117875
  5.7377771473368844  3.9094102456287114 12.1833494314283310
  3.2568322103667837  4.6269564200451221 12.1567551418711179
  3.8750908540602533  2.1199317743045341 12.2379862168678493
  8.6890179255231281  4.3819733953213822 12.4009391684084740
  1.6815483127453690  0.3360620283352862 13.0299837179338542
  7.3396546588331422  0.1108315722381295 12.3939516015810263
  6.3062863191439886  1.3608508586210391 12.9997496477717345
  6.8157086723519917  2.6406770323464590 12.3110824913256831
  7.8078022565832255  5.6124818000907073 12.9872316115736819
  4.2887977365789522  3.5718059979354946 12.8032309767483667
  2.2331026116669364  1.8244534502767620 12.3351925934789097
  8.3985147434385699  2.9406471343298173 12.9557785167641040
  7.8044691358313010  5.6616247539242934 14.5169331454838595
  4.2856605121190494  3.6205656933614270 14.3331306909885843
  2.2273439324601445  1.3125327122832025 15.1753755980790430
  8.7158532960077455  2.8043834779510264 14.4874777914462083
  1.3571577163326227  0.1994652459612829 14.5605336260089988
  6.8121846185824513  0.5015351144848039 15.2038821997648093
  7.3335070743739417  3.0334608391738858 15.1258370621760303
  6.3027276729695627  1.7798525647665129 14.5131043161691924
  3.8691334905766999  1.0185694431607892 15.2720903587221546
  5.1651999181609227  4.8518266108033430 14.9238523963036638
  2.7955005815449061  3.7963773521236011 14.9553984673888856
  6.7707109748793242  4.6053768198220704 15.1605546608340926
  4.8937987902791251  2.2732820294949625 15.0039663278053457
  9.2517457063789852  5.3254358797037034 15.1412050542977354
  0.4561948011342049  0.2556309223120509 11.0444404161827752
  6.9079443116717556  2.3702592272850205 10.9836257506456185
  1.9902289234072823  1.8178307199840626 10.9996439222895503
  8.2056257203361298  4.2653822932243992 11.1130210888436771
  3.2871562736278577  4.3491652622152346 10.8205003243029534
  5.5190806775903409  3.9599783143017300 10.8365899016124079
  6.4982525855868589  5.8502924704075090 11.0588967257773341
  5.2063392780049611  0.4408867291093570 11.2285085201026380
  4.0646224386379179  2.2209296885308274 10.8897208446725866
  6.7995710268185885  4.8859256311141630 16.4964633460074133
  4.6799025968396304  4.9664622673847703 16.2112790414341390
  5.1989783324309240  2.6967085786141154 16.2820084193884256
  9.0316932399715828  5.2779414907054241 16.4877985738631274
  2.9738533570925409  3.3824091966081249 16.2603959641087386
  4.0583406091441550  0.9193361189186717 16.6205027363653777
  1.9839184732443338  1.3212490668296928 16.5111338488119408
  7.4825625907057294  2.8835340162530150 16.4670346190827175
  6.9015170277420390  0.7733225959862842 16.5310517615050578
