C  F 
 1.0000000000000000
    25.7437154126780889   13.3726651836733375    0.0001101952956004
     1.2822151405264028   28.9836769990471410    0.0006425634353528
    -0.0001586033941387    0.0004919111809227   19.7749879621543840
 C   F  
 508 246
Cartesian
  0.9789224802002141 23.0571754592609821 11.1353065075744659
  0.5181382053651609 18.6385678895273088 10.9399826227069159
  0.7854396862770027 20.0985127337126208 10.5271275108456663
  5.2719454696434394  2.6817861874029667 11.2760738782882139
  7.9313435018766292  4.0228316183452968 10.7636084835169559
  9.3143426851663307  4.5903273190287299 11.2488733283851747
  1.2157206235014284 27.5775942145841668 10.6872870807764890
  1.0675875940851518 24.5483184576742772 10.6577590235421376
  2.3811487173278794 25.2177469702620449 11.1903770991492610
  2.5008483852511487 26.6845049870374602 10.6859089865894248
  3.7803954074443342 27.3823630539092768 11.2176042522077424
  3.8833278843263672 28.8434951006230804 10.6939004606263257
  5.1614084063002705 29.5387874718117978 11.2350755056870391
  2.0957747867937031 20.7734945062205014 11.1083725511510654
  2.2280047266412133 22.2600250526097980 10.6305058131485612
  3.5394406343935452 22.9293386360657507 11.1722203915980476
  3.6293949728586865 24.4222524564563344 10.6797588225992470
  4.9443610933586220 25.1005479229649104 11.1921533244148641
  5.0262213871838322 26.5846306207673813 10.7007322997628052
  6.3461820078546163 27.2564010616082477 11.2043986643993936
  6.4146205065264770 28.7397112758267497 10.7126391011739859
  7.7450237415979455 29.3959346802936885 11.2093643172262585
  7.8080277600261736 30.8804907543491751 10.7331172070563241
  9.1550800133558550 31.5144505797918555 11.2151278616704122
  1.5191438527718530 16.3185519702688637 11.1718169835569601
  1.8199820199613888 17.7816448387740493 10.5787735315228719
  3.0227933923887891 18.4550941097429089 11.2983669591748672
  3.3360503287452778 19.9443550769387414 10.6627842862327125
  4.6238004202150833 20.5967882108847284 11.1758194239383872
  4.7849370877818007 22.1188841328579393 10.6902661745123879
  6.0899818524248346 22.8116675224532273 11.2110210145501092
  6.1902406732806572 24.2966856424128430 10.6915658423723610
  7.5050379441846689 24.9669482727022505 11.2054911819264795
  7.5930549169030170 26.4526537180550569 10.6969891867586657
  8.9191857416669222 27.1118898097148673 11.1896158863401354
  8.9903966654444982 28.5907076325116769 10.6823367136557064
 10.3202122474938154 29.2092915027009425 11.1783380540461454
 10.3892065704478416 30.7073620569818786 10.6413134522032582
 11.7503448504759689 31.2316570956774946 11.0699328774186476
 11.8135047471645560 32.7855055421971215 10.6080322641002418
 13.1713339224116641 33.2692519328370153 11.0960394952543489
 13.2882590267639387 34.8408736351503876 10.7607072809742466
 14.6829768214346021 35.2549563772483268 11.3546501784225615
  0.8175424472215661 11.8259682936923820 11.0480657543384950
  0.9113240771059864 13.2490650894566642 10.4786920535778449
  2.4492119102527292 13.7334805542165483 10.4007622976704006
  2.6818516961818504 15.2125090795836897 11.1639083824694794
  3.9705544568594879 15.8625177902483330 10.6617716315475519
  4.2084417693649110 17.4142071053385976 11.3351966548121830
  5.4417320881380231 18.0438276424796129 10.6717403153970167
  5.8393681383880462 19.7767352639328315 10.6665732766806745
  7.0316962026575736 20.4414604722818325 11.3850871948374230
  7.3175081070372050 21.9796564903949232 10.7427847148185567
  8.6248797929705248 22.6312263919430627 11.2091198296823542
  8.7421314488282231 24.1434376372686366 10.7158245319870780
 10.0441430647194885 24.7887521553187753 11.2491418982877089
 10.1481379152256217 26.2678892092197067 10.6742301282991505
 11.4811941989323678 26.7949183253733203 11.1483661860602581
 11.5489185740109352 28.3251421636647756 10.6758505417467262
 12.8895904467434885 28.7560515696884913 11.2202345326587327
 12.9921534519670274 30.1622620140623425 10.6344817639577176
 14.2804612273497593 30.7841236607649549 11.1572988637453321
 14.3578342944970654 32.2378303319564523 10.6406831971560063
 15.6965473366851409 32.8171119096241242 11.2713708332314635
 15.8046745187849620 34.2876144217002690 10.8852022422058283
 17.2470358723082740 34.8964000618855934 11.4387383648407646
 17.6070316861149259 36.2890439791278041 10.8586446671327455
 18.9714746322263181 36.9366564378125162 11.3105830918008863
  0.4361554471484864  7.4432095694793228 11.0084781710103918
  0.4798614382380383  8.9019565984981259 10.5344979480943941
  1.8519911540564480  9.5846659282262046 11.0640805177686694
  1.9521684377752568 10.9861835917259167 10.4426084615512860
  3.5982228781791172 11.4453729535216304 10.4246767667287852
  3.6539684112350250 12.8899800967265445 10.9793914692974823
  5.0633113491071633 13.5486533188244813 10.5825265640434036
  5.1871199109218322 15.0282824002686066 11.1307898156390728
  6.5139726448778887 15.7104681879719461 10.6603278728370796
  6.6444572238217248 17.2294279252966369 11.1836499063883377
  7.9318812196757182 17.9192459673806042 10.7039188202546640
  8.2074108023827144 19.4431411478453882 11.3752222690621814
  9.4079345243880219 20.1127823860729400 10.6446192102866615
  9.8012809626491215 21.8073667522320953 10.6348767416263943
 11.0779342689350937 22.3774928564247588 11.2591748682177357
 11.2589138990049182 23.9008591053150674 10.8117101604124457
 12.6277262276724240 24.3212477767836468 11.3616628126408639
 12.7560671248206727 25.7223195387420418 10.7530724032686003
 14.0630810132128374 26.3343051941128010 11.2262927796876095
 14.1091517520990042 27.7744623626913594 10.6904994770145088
 15.4428857306543446 28.4185314971798633 11.1857866011712073
 15.5268936170301437 29.8916950901671505 10.6888959968251793
 16.8572066258090807 30.5213880427042348 11.2164688847819125
 16.9417988988453203 32.0025260290771669 10.7665082044124105
 18.3157930538077522 32.6115474510264391 11.3104627453590254
 18.4199123125326025 34.0828512532817030 10.9113705138166175
 19.9089760278121233 34.6895103074359312 11.3748053223080827
 20.2060533912729667 36.0866886354760013 10.8226542702468294
 21.5878900089344050 36.7129695635627797 11.2288431548986036
 21.6668111329137005 38.1692438078734853 10.6933364727569256
 22.9986837363690739 38.8371022796299528 11.1794753092463779
  0.1910363062286888  3.0334773130976860 10.6485142075966248
  0.2413974741558911  4.5294088511559432 11.1083162713462098
  1.5625411758026726  5.1837323113854517 10.5347042374951627
  1.8004233925265569  6.7501439243829582 10.6174819833814205
  2.9909767448297453  7.3435915480332197 11.3970432668217381
  3.0920769217113095  8.7530381493340066 10.6946831137255991
  4.7381484373212963  9.2184352475952078 10.7057466302059066
  4.7917205829278382 10.6886824502620073 11.1052116792654001
  6.2274156339604962 11.2982618801824639 10.6659991166470096
  6.3015311557731817 12.7679021684565139 11.1396999687109037
  7.6664622258095507 13.4296857985112670 10.6624560321471620
  7.7484575716584301 14.9084567339835665 11.1680973140182118
  9.0726370523782904 15.5901797845977939 10.6735775451194286
  9.1597708013104047 17.0845994271169914 11.1948999227660497
 10.4810588740917190 17.7828641788235338 10.7190804133128967
 10.6285377105618632 19.3425230193158129 11.1828223506315165
 11.9556935100085564 19.9755496077653873 10.6560468691058663
 12.2736470675941209 21.5696825892802622 10.7360676033586557
 13.6064392097751767 21.9015395974219764 11.4017632119934476
 13.8864613429516375 23.3293506737586007 10.8654763647607506
 15.2120009034692423 23.9704414870132787 11.2490415574366978
 15.2922603539218311 25.4407520307168546 10.7149971155951373
 16.6192660629851758 26.0974710261471543 11.1823130779670041
 16.6944756584023857 27.5789378597878176 10.6894361146879842
 18.0246523381690515 28.2335578279170711 11.1838465817471349
 18.1038611232813800 29.7154899504849688 10.6991901694284071
 19.4569641783991329 30.3620287328604128 11.1875734120450527
 19.5377153975161271 31.8406091281845320 10.7305212823948946
 20.9460881611694276 32.4578208119897837 11.1898629470461177
 21.0462625763697453 33.9021791949346181 10.7252857499763792
 22.6172377160392948 34.4673778473275760 11.0961926244152540
 22.8134592375590302 35.8957296408584696 10.6313000068673151
 24.1593959276004639 36.5447676110881758 11.1365714354178404
 24.2473900813795034 38.0333796547334515 10.6624614283946872
 25.5654181986457694 38.7097712923794575 11.1811202253585655
 25.5918575135348902 40.1817836868249216 10.6765544100167169
  0.0022259663277599  0.0224754379685933 11.2481424534059826
  1.2610196906057198  0.7266660495119369 10.6989376009215960
  1.3663722325138470  2.1882549364238879 11.2122905921385545
  2.6385351135190143  2.8842082984752326 10.7023218791942849
  2.7261141118890566  4.3453269501480962 11.2144270896603722
  4.0372568090437984  4.9722654137315621 10.8005972450438978
  4.2064093594402383  6.5206376004663840 10.9587814576481151
  5.5694001440945176  6.9840554742899217 11.6138977953718587
  5.8552632451430595  8.5254944739041179 11.5460600089205894
  7.3697042410152545  9.0495918604092100 10.9138410755184729
  7.4677019925622279 10.5487584288439944 11.2572560563629018
  8.8523745221440944 11.1691590559802201 10.7221379923471076
  8.9234178399167980 12.6444714687094084 11.1885828022180345
 10.2560060706933456 13.2995792411277591 10.6715132834090856
 10.3166903483009840 14.7742369322280194 11.1823065829704689
 11.6315631966032704 15.4524545885122162 10.6938117504682797
 11.6935855077214672 16.9176078585794514 11.2467321639089235
 13.0270683230615631 17.5928774643988817 10.8232496496047421
 13.1072650082614572 19.0039327537945795 11.4906900980397104
 14.5871801780951547 19.5829666847288024 11.7540162752501285
 14.6741891948852903 20.8494690465810599 10.8771296012298464
 16.1001739222494180 21.5545518841234198 11.1593714165131566
 16.3896049471489960 23.0865333787719358 10.6456385246391410
 17.6960577030762423 23.7477218411037363 11.1345291786586902
 17.8354197745869065 25.2622274425457896 10.6496135823489588
 19.1638250562021071 25.9197439084681207 11.1334075636199330
 19.2584388657847789 27.4235204440909470 10.6539929226290706
 20.5953120790019639 28.0912647795779868 11.1286258095761053
 20.6880320701257183 29.5734946888082675 10.6351446354615664
 22.0709864651460421 30.2304052116646780 11.0637248852015979
 22.1537644491503087 31.7119803022829778 10.5930937202347231
 23.6261290171884326 32.2391507204179391 11.0942257839828109
 23.8996593584603936 33.6500504917682832 10.5924522126560277
 25.2737945039398646 34.2827801933726874 11.0870455585792627
 25.4008866198328818 35.7537944900934974 10.6093677632049737
  3.9880649417059231  2.0144400088593728 10.7196645412875018
  5.3770375708889810  4.1458500752018814 10.7968167348603377
  6.6926978333455338  4.7819924738465964 11.3496415498185286
  6.7672283955229897  6.2851845275006681 10.9779737807395801
  8.2218426865808301  6.8149848335701595 11.6000088924989893
  8.5661031384218376  8.3620947380482722 11.5654975883204703
 10.0116645712392636  8.9038534295984206 10.8482150374139739
 10.1200508660545143 10.3929649119543583 11.2339576265806311
 11.4631718761470704 11.0019319078414934 10.6508136177297246
 11.5280806173281114 12.4767914203093451 11.1577054923967260
 12.8354644058827088 13.1365270602207538 10.6398666112986220
 12.8817470210455447 14.6043781361898422 11.1885969919589012
 14.2189355702561535 15.2625334082616320 10.7473708814765772
 14.2725704341118647 16.6925492483214093 11.2918107785296442
 15.6280449268864441 17.3244708046546627 10.8191223148824314
 15.8283629220223876 18.5233026641441469 11.7212501327583887
 17.2166283651715162 19.2202460244560029 11.4822186068870220
 17.1920004303474911 20.5994103902738352 10.6954600846160108
 18.5993820096010900 21.3475443336744846 11.0694411607371208
 18.8762601466791615 22.9345480887685191 10.5963927835325897
 20.1584543773009948 23.5470479391632175 11.1513567315328253
 20.3822004354720541 25.0902481086933058 10.6085787557230518
 21.6660996319740882 25.7710354514698992 11.1096897631356359
 21.8128920407022875 27.2817820267247164 10.5993768131432642
 23.1372938241190624 27.9540511629496429 11.0828533461085375
 23.2787958498541272 29.4091977352413068 10.4852883662164693
 24.7153899813394133 29.9737383814173128 10.8516636984881440
 24.7968304093904131 31.4566268566156175 10.4341821715063716
  9.4007428208842345  6.1162253624514582 10.9080100412388621
 10.8531785059759400  6.5919934538930365 11.4672754190663735
 11.2224495614582658  8.1403537466579170 11.3833022693666077
 12.6166952106564914  8.6484490004938692 10.5617212780578953
 12.7479284517921680 10.1332982523022554 11.0693434684926277
 14.0192629190092237 10.7846398001588373 10.4605587271338152
 14.0980968516206762 12.2129437201046507 11.0751887407017477
 15.3763196741797987 12.9048930409339011 10.5924634429081017
 15.3997824882002909 14.2404519308622195 11.3793629028782846
 16.8493803114327285 14.7773596948035966 11.4111001939705208
 16.8755561376320351 16.1668222611280221 10.7296238781674340
 18.2276947660897761 16.7880319371112527 11.2438415101402516
 18.3135335167481337 18.2495046409302581 10.7847325167686723
 19.6638455386934616 18.9166399864965165 11.1878396826663966
 19.7176250652034248 20.4010435611059506 10.6219935719513821
 21.0700587529909207 21.0920300582529094 11.1057899267397797
 21.1936846285180422 22.5974760184958896 10.5872467719608636
 22.5606415421700213 23.3068836822479675 11.0127841388461203
 22.8382061480783598 24.9512388027961300 10.6024344584661030
 24.1260757625084103 25.5538563027043288 11.1714611548262006
 24.3430694841360982 27.1452322652620133 10.6394083270553708
 25.7237066007104431 27.6586184381969140 11.1061841424469829
 26.0506477886232943 29.0752626692713356 10.4685051499892570
 13.8169823503830571  7.5779314170848213 10.6785397563414932
 15.0917323310649518  8.2358583745878580 11.2156021943123871
 15.2556163542963255  9.6063981347281384 10.5242262850283961
 16.5208386815947890 10.2601022813611369 11.1023248111388266
 16.6469942229909194 11.6995109499732717 10.5453256983333112
 17.9372213309731414 12.3081009684945464 11.1617371563871792
 18.0331187944375486 13.7855744724834040 10.7365534627037533
 19.3774037497120872 14.4289833327671619 11.2118023357407690
 19.4423328046715618 15.9133621371949427 10.7145162347351199
 20.7806923175170084 16.5930149659777797 11.1830834182746681
 20.8602371126934862 18.0753087254917162 10.6579356444394264
 22.1861110989578876 18.7738956905321999 11.1264136295045581
 22.2597323597357217 20.2436054627401880 10.5795857963495674
 23.5926037812186742 20.9310868856003438 11.0438399474159574
 23.6747519688352739 22.4097303868399784 10.5184394515038306
 25.0085234388437669 23.0734894710693474 11.0662196420803269
 25.1579839592748939 24.5677090106515053 10.6187883397439293
 17.7939923850076553  9.3693341850365410 10.6971264977507463
 19.1309876692420318 10.0181068288254220 11.1886454598883773
 19.2075474971374014 11.4768321982229899 10.6708762110070836
 20.5343466781929074 12.1401669914955157 11.1789113235152762
 20.6156973440599316 13.6177397925594175 10.6819883795080131
 21.9365118870812523 14.2984178949143494 11.1896893380098419
 22.0132482924667308 15.7764539503842141 10.6766663881075203
 23.3199663444591216 16.4833395884103382 11.1763429250815332
 23.3634241348873779 17.9267338381803398 10.6033906155239208
 24.7795473984811281 18.6089613132137295 10.5332658209318186
 24.8352347467780668 20.1650646613770199 10.4903872317624600
 21.7832227041530402 11.3300677487245451 10.6806944452611567
 23.0960987717179123 12.0074262815197628 11.1987109593271317
 23.1393643009055836 13.4682195875586945 10.6737729155718242
 24.5438848073673164 14.1609151299903839 10.6831518798182756
 24.5249176861918450 15.7144748563069161 10.6378827242505025
  0.2319108942513815  7.4162787211571857  8.2392251902453779
  0.3069565066748792  8.8849838564036911  8.9108295306618697
 17.8885427813577742  9.1665327381855466  9.1239204608288276
 19.1833958661732105  9.8861242973390748  8.6158930712795101
  1.2230342675699519 27.5721934138602300  9.0810056049480288
  1.0501947326790870 23.0752740597218811  8.5670422507650965
  1.0939439139437377 24.5549290788082963  9.0816249937069742
  2.4148131893320208 25.2293135108228697  8.5789159310890177
  2.5149743384844667 26.6872283667977008  9.0960299399868436
  3.8024897002608329 27.3874224020364778  8.5842894592380077
  3.8944522058765667 28.8448892309426093  9.1117163269374242
  5.1792184004020738 29.5591989988918584  8.6011173226723763
  1.1576573342019802 18.6453148448344272  8.2730873500278381
  0.9958025422769646 20.1005686318361008  8.9706456156664753
  2.3121391915698171 20.8191458887019287  8.5546000743462951
  2.3083683165472628 22.2813652110051628  9.0834840247909714
  3.6323220493342911 22.9610785985787516  8.6040291583071671
  3.6649268652166223 24.4364867786794129  9.1083367731155942
  4.9863883911049998 25.1158913863637920  8.6182497861465137
  5.0429419198602314 26.5955220282710556  9.1163885543444003
  6.3577701479463862 27.2830095682196578  8.6285931487320902
  6.4186777322110382 28.7641321056840127  9.1276778553096030
  7.7267503424967954 29.4704544809802407  8.6336787359183180
  7.7841106577362424 30.9486515000479336  9.1560470443511512
  9.0619958282481452 31.6893801449551873  8.6524751578036287
  1.2834828653799280 14.1614265510836539  8.3328891959448352
  1.0353428858394504 15.6335039475022306  8.8701336775294592
  2.4311626202518397 16.3878807224244660  8.5881702052266480
  2.2772004277367732 17.8280520716467308  9.0544284989677184
  3.6935348275897293 18.5424059676145312  8.6751597848531166
  3.5617957970482514 20.0024276278684852  9.1139384451196239
  4.8973772674292402 20.6999465366061592  8.6154719995482143
  4.8865971980911258 22.1598076896132028  9.1300244755704956
  6.2055263760213109 22.8430601222040650  8.6405575714529448
  6.2377574873704633 24.3204462558580659  9.1346635199478339
  7.5548841767413970 25.0158235525943269  8.6350173075891448
  7.6051569226618634 26.4920108050853607  9.1395017969074548
  8.9086230295914799 27.1987308333137996  8.6170181487181114
  8.9838166345894681 28.6805514912504300  9.1191304760392384
 10.2888767134171495 29.4517203569401111  8.6115913254464242
 10.3431199027837266 30.9050987085830791  9.0848218665265268
 11.5726050067457997 31.7766112003907928  8.4050033798370034
 11.6852766971830437 33.1536376183543950  9.0761880001322197
 12.8909878986366593 34.0629618387008506  8.4822458477417975
  1.5757553849198054  9.5701769607446039  8.4565842281460917
  1.5593593622970983 11.0875029809236043  8.8830821310128290
  2.6878460204813250 11.9728389572576965  8.3284167510274649
  2.6134379112180626 13.5579606347921615  8.8592592414531151
  3.9050395816107843 14.2699489595325755  8.4902204383968094
  3.8546965173123340 15.7389276947480319  9.1008940786453927
  5.1490809229536962 16.4228085252391587  8.6180799337865874
  5.1588875670163690 17.8569786179054120  9.1509863843479060
  6.3967883403914403 18.5478590453795569  8.5907601624112182
  6.2101524905699499 19.9451125555524662  9.1376919737882769
  7.5777236929470781 20.6499093514185610  8.6984699481484249
  7.4841812464204054 22.0786328169702166  9.1727211367473434
  8.7949236328206695 22.7871509380688053  8.6192411908273314
  8.8192176060915592 24.2409315758466342  9.1425277945450283
 10.1477923873085096 24.9705317199489016  8.6561336728358302
 10.1787472584590457 26.4392216006620515  9.0988914069889741
 11.4503227015620883 27.3298895776049804  8.4462318431892545
 11.5477507810436499 28.7053489271051987  9.1382483279750897
 12.9494629973483626 29.7930601148336756  9.1169923921398031
 13.0131966489862645 31.1524296493647697  8.4085842687183447
 14.3150282550919847 32.0507905579828858  9.0811222665766174
 14.3725344335003467 33.4796005161865864  8.5388057316774901
 15.6066905304983496 34.3341861168457427  9.3303759620052791
 15.4139131963208698 35.9268428241780455  9.2048312018621914
 16.6799445504711876 36.5868526658227822  8.6441079044621940
  0.1752505517291524  2.9766879998203639  8.9889170609573483
  0.1957919626903318  4.3945607954447858  8.4028657181114212
  1.5009829150913796  5.0880680119504254  8.8554119402019449
  1.5939862661980184  6.5471591733684367  8.2401293288963906
  2.5759999581478930  7.1936865344053071  9.1732556192246051
  2.7721393196804502  8.7716820099311033  9.1132730789369365
  3.9560593085243347  9.5646397021571357  8.5080918941366530
  3.8859436546665704 11.2417640076025460  8.9123053367638700
  5.1786234330445895 11.9504985719759045  8.5151247182829124
  5.1486078975793133 13.4801701889338119  9.0323301786609349
  6.4566985114582627 14.1835085440103583  8.5901396421999507
  6.4670088924051239 15.6645051710718590  9.1142827526566723
  7.7708152292274919 16.3692569663105836  8.6344016543875437
  7.7894475091262496 17.8495408478313351  9.1439987782423504
  9.0868121703957048 18.5034020325930229  8.6391610650213355
  9.0893954124998828 19.9399315344714481  9.1277852341282593
 10.3255681576848133 20.6431455852256249  8.5555606179214614
 10.1073678156176037 22.0601662984827449  9.0899472631673142
 11.4281566749116834 22.8469228919607730  8.6655234873116971
 11.3859582897923612 24.2600253324048118  9.2608368899579272
 12.7411249137083509 25.3244905099002224  9.2459483061917425
 12.8459666398779806 26.6775872214677712  8.4789260576541476
 14.1069266306645389 27.5883158191750439  9.1343030300982253
 14.1945000942962078 29.0369444282381011  8.6282958491662622
 15.5143239565222153 29.8122366788743065  9.1436401144043362
 15.5886970179455115 31.2946166570588957  8.6504495464532880
 16.8720159172659976 32.0423277822321140  9.2131874068732298
 16.8898096820283286 33.5904868258475204  8.7983856272824799
 18.1636073652205425 34.2571932042165059  9.3871701238437897
 17.9081536401568719 35.9390890407251575  9.3223595769860363
 19.1639621417816457 36.5972617660082449  8.7257605489292871
  0.0114448827868924  0.0031750453707954  8.5055166965001874
  1.2730708235337342  0.7111635739740056  9.0654468575051848
  1.3989698636817025  2.1486840975915973  8.5202208030328954
  2.6585488130549026  2.8700218223585972  9.0882300146952701
  2.7969468104945028  4.3105342365187935  8.5246553903995679
  4.0028294171544623  5.0101538036744593  9.2046849993688706
  4.0231409143122994  6.5695828236408964  9.3754942288243619
  5.2519756931633923  7.3196876220404947  8.8453034296424224
  5.1378854365854894  8.9251548658492279  9.2006412205411348
  6.4145040288465474  9.6137691158281182  8.7320360703044795
  6.3794738262573647 11.1815285702219889  9.1279856824624890
  7.6759450418562380 11.8791765799949278  8.6442620945878001
  7.7019124443737832 13.3943710958548756  9.1176616999126221
  9.0056110428770477 14.1011446713978170  8.6243848838756332
  9.0511132600478295 15.5857764899537425  9.1328010795893153
 10.3672794941320507 16.2916806830667511  8.6526364673742204
 10.4050324720742005 17.7611895993804012  9.1629839898748209
 11.7180828851415484 18.4555875585704712  8.6746312779048917
 11.7504176755705565 19.9132121519008010  9.1016349057460069
 12.9672694576863510 20.7453611481670492  8.6323873162280282
 12.6527282056571693 22.1092607882523531  9.2460524676567069
 13.9453570450498923 23.0788761957161306  9.3309451833198587
 13.9591318216469222 24.5303693904317868  8.7394168277594915
 15.3003893340848300 25.3378222666848423  9.1652643540795715
 15.3755999031383919 26.8231267606873729  8.6545848900435924
 16.6933514211579563 27.5469471650486497  9.1500300954321716
 16.7592146243054962 29.0326020293082117  8.6463046948646110
 18.0656963661885470 29.7392172086553117  9.1543615235010787
 18.1111648652289219 31.2539316681559782  8.6805693489634699
 19.4097465961630746 31.9408711168898556  9.1839072016068588
 19.3713992580277932 33.5030704463552382  8.7542585268745512
 20.6787465961966355 34.1515672616664077  9.2219948647083374
 20.4233321213731749 35.8763157216338300  9.2706973383321358
 21.6560364379627615 36.5821083401461280  8.6391417199420193
 21.7100579069331800 38.0989458576710902  9.1255451701017769
 23.0108633265282982 38.8026147124940337  8.6035408288499102
  3.9926473640560234  2.0323634795269743  9.1418852436504832
  5.2615978832893822  2.7684699877490417  8.6471304992756099
  5.3444171197257804  4.2234473853205099  9.2185657531967067
  6.5769707507328583  5.0099306610393635  8.7595065515806176
  6.5713181376551102  6.4785529095852397  9.3926450988189387
  7.7860959963486467  7.2674363204557606  8.9406543881457470
  7.6145129266965954  8.8580378525829424  9.3664411392204165
  8.8840716517774450  9.5572888943268808  8.7882190739156965
  8.9098639983371193 11.1046477367679906  9.1856873972140196
 10.1949291605201147 11.8215237587761646  8.6375518675500231
 10.2572076194396971 13.3188011059379452  9.1265498114980801
 11.5649201955234666 14.0517733367767086  8.6261776374898265
 11.6301174670838279 15.5215995943234102  9.1585227219577181
 12.9630709870632490 16.2736491101199299  8.7204490934987593
 12.9876046149718700 17.7411461062926925  9.2829397576894035
 14.2772636410072451 18.5905334780968055  8.9106235885998881
 14.3131484548376182 20.2032053129548821  9.2821918774227754
 15.5195337194385328 20.8318414423703544  8.5782204672014402
 15.2972266089987130 22.4184467432975083  8.5732110882957411
 16.5615158098573865 23.1110942955752812  9.0848414567956546
 16.5799881664348803 24.5935287106485596  8.6204578068543363
 17.8957881144220146 25.2862915537636752  9.1037003705338577
 17.9449492470683047 26.7678297074951921  8.6194675029407577
 19.2626230175633815 27.4535749870957417  9.1139341605655950
 19.3016952348567941 28.9454246498398859  8.6202007665117080
 20.6161963764187028 29.6259567477655992  9.1006999410159342
 20.6320888317763860 31.1380406914538774  8.6157069372496906
 21.9437335327500271 31.8507864138407371  9.0457900105364004
 21.7771615305456230 33.4049169073838428  8.4200931252422624
 23.0516505595886194 34.2779715373354961  8.3767749239066482
 22.9261603084883632 35.8144289433548479  9.0521016607968026
 24.2202177613596419 36.5444156839412244  8.5636732330216372
 24.2722253554303400 38.0244757300992831  9.0910793682878808
 25.5839546555578892 38.7141374408018777  8.5713384438467859
 25.5983215362809773 40.1778195326015890  9.0861665671899843
  7.8432608695757935  4.1834183207079914  9.2148258410262152
  9.0948094105352570  4.9780768987215689  8.7347482391863682
  9.1337550106494607  6.4239683884789178  9.3800443918435903
 10.3032092803294972  7.2523824124856011  8.8550671218759671
 10.1483755694080777  8.8087138976588175  9.2899232863301791
 11.3892752969442075  9.5635182183538898  8.6218942093077615
 11.4564621154944017 11.0561568024855799  9.0979688147046502
 12.7430543154288625 11.8257536882517016  8.5326257968240018
 12.8208384787153697 13.2771812865885579  9.0916659653544123
 14.1347365580117348 14.0724879043817523  8.6175107870095271
 14.2224532399193926 15.4965326623449844  9.1981282323658267
 15.5004102561846633 16.3955965415454301  8.6854756766560239
 15.5370301804756856 17.8089194512681424  9.3336816118033621
 16.8355618105872118 18.6856192157788925  8.8194863442386158
 16.8873678799396885 20.2451543433542511  9.1728942355075223
 18.1264757532520093 20.8452353050214114  8.4470700397484340
 17.9634729604011021 22.4163903766274473  8.4116064614219344
 19.1886519265335700 23.0637691293703284  9.0741908933927373
 19.2078562985303662 24.5232434926443936  8.5698934996975140
 20.5110388878499172 25.1804589253934594  9.0479301613647820
 20.5287564375321558 26.6707912248320156  8.5725771229014214
 21.8621251771096325 27.3451160084754825  9.0433172491477691
 21.8456358514767253 28.8385506364905311  8.5290147917808223
 23.1679483636859942 29.5369305498752581  8.9461518684818504
 23.1405671108665594 31.0750599135755472  8.4865289541123197
 24.4411636440542956 31.8150285975564486  8.9523527453020630
 24.2102627206564911 33.4990937360701508  9.0472449622145259
 25.4908670298528293 34.2464341857937811  8.5215340392830736
 25.4756582924367798 35.7440391614641442  9.0492896101044256
 11.6757505781175972  6.4496618358948616  9.1745271389894079
 12.8078278500041645  7.3444186220229941  8.5482642913927798
 12.6652697966341439  8.8180827321411517  9.0034386140191955
 13.9935618393776409  9.6437613490537455  8.4224614190202729
 14.0099966326716689 11.0749020029426912  8.9333802099543718
 15.3611413936916623 11.9420714258204921  8.4497372294788899
 15.3757264224836803 13.3310624965294426  9.0851075015335621
 16.7401153581439139 14.2900999096130796  8.6974578770077891
 16.8128170777988153 15.8130247401733133  9.1881658025728061
 18.1179049440220012 16.5703834701703343  8.6809116713462515
 18.1821516848145457 18.0679137496598834  9.2314252005320352
 19.4811804101641961 18.7506714584394771  8.6354430450795316
 19.5248913522247705 20.2448016053611397  9.0741709579791863
 20.7935469822262675 20.9249815542426418  8.5486128790557068
 20.8208941050115861 22.3954016147453636  9.0618827268600519
 22.0339537641209766 22.9986647521337240  8.3248359039966626
 21.9052798718995518 24.5371772902394234  8.3587080087428109
 23.1506353143242727 25.1260204529170785  9.0861009945226971
 23.2182804259431599 26.5729007428171364  8.5611485043627216
 24.5023043979281567 27.2899654455518714  9.0854752011028150
 24.3637316761431997 28.7944221320673925  8.2642549222921566
 25.6880204400866425 29.6681133518212157  8.0005664651895021
 25.5309153331109080 31.2895871015737406  8.0407989224001124
 15.3498756556327383  9.1469163368897402  8.9907186850110197
 16.6611474710020779  9.8886014317524165  8.5190766516590557
 16.6803190110485104 11.3896835824042739  8.9958976955887948
 17.9840639772122124 12.1582063181520645  8.5730411233523167
 18.0242420150405600 13.6344011812819481  9.1593402325795168
 19.3252409649801784 14.3594922124486750  8.6395822403798963
 19.3967151350212212 15.8340120599837118  9.1552296315770896
 20.7041514519851333 16.5237734196745869  8.6104853094217582
 20.7810835782613132 18.0091088756303250  9.0994282955837207
 22.0701694255213994 18.6930778451956066  8.5214362178698231
 22.1389628598943524 20.1768026543542192  9.0099012152076483
 23.4269342498922910 20.8496944950110148  8.4410326980455661
 23.4675009475998166 22.3340075730633352  8.9318647133453020
 24.7402920395277199 23.0500330461244367  8.4678144909068109
 24.7558685982012783 24.4742764143858871  9.0758060954028039
 25.9537763756624003 25.1967047238491801  8.4536441852287449
 25.9885566865507478 26.6324942752707052  8.9927794440756088
 19.2264212172702145 11.3912921978298272  9.1036476598681091
 20.5340983868601477 12.0949563901761508  8.6030230436207624
 20.5972080255438605 13.5806866867108162  9.1105022110805951
 21.9037793492206312 14.2647490808760775  8.5757000036255810
 21.9798971958450622 15.7426015474738303  9.0723929613753516
 23.2696402391093464 16.4240365505065462  8.5024203366310918
 23.3116265428317142 17.8819800668607449  9.0045126134000544
 24.7307569840656605 18.5532145011047191  8.9515263951389468
 24.7382938749890187 20.1189214742265214  8.9055929740780275
 21.7865518768022568 11.3069246794137470  9.0953359535283322
 23.0918136650985062 11.9899010826577239  8.5650994838195196
 23.1294378369692772 13.4495697384902755  9.0790922098935098
 24.5361774406505049 14.1385756861872096  9.0480219182918766
 24.5071229766546317 15.6751563693870839  9.0422126331457964
  0.9662152497161739 23.0621908441410248 12.5129372515434145
  0.3812036570667116 18.6558017955695981 12.3115723190013817
  5.2452173568767009  2.6332699391932124 12.6519667044405750
  9.3545832959326560  4.4325440892540824 12.6146544772850149
  2.3735417764435272 25.2109793927550001 12.5675303866986035
  3.7664466236244318 27.3820017675868428 12.5959711173175268
  5.1402743196465641 29.5282509156611042 12.6116378758914518
  2.0273155225970831 20.8352293751034843 12.4806703201445188
  3.5166700207679136 22.9311201820521191 12.5505619090042266
  4.9345362569412314 25.1016615008597057 12.5720775981369108
  6.3464864279711231 27.2505109248880686 12.5847781106679086
  7.7524542738593221 29.3707630562847584 12.5890719173962360
  9.1830552780016141 31.4477716479991045 12.5913535224145612
  1.3205052606492536 16.5370913501745314 12.5124647224129877
  2.7435676014321828 18.6636242930960314 12.6174455117327966
  4.5405312242135087 20.5784729300009630 12.5522899818527929
  6.0600171756771735 22.8809095583699431 12.5867416941743802
  7.4936048374321755 24.9782018512507022 12.5844258418112389
  8.9224405359988808 27.1223066496716214 12.5682963653878268
 10.3169191801240441 29.2290837059435340 12.5550811999670078
 11.7983700714754072 31.2234249207728283 12.4480264917488928
 13.2159569584649681 33.2128240411886821 12.4770660718100661
 14.6020003056695575 35.3388917420089470 12.7275262781303535
  0.8575898197998320 11.8888379477485504 12.4216561118026743
  2.7920195405781238 14.8955581256842109 12.4911311397133726
  4.3645789046863799 17.1634536068801111 12.6650329500863617
  6.7969989997611258 20.6696336966807905 12.7053524420834698
  8.6609669052740639 22.6216272372904399 12.5893670238465418
 10.0013412234535082 24.8441887477733374 12.6260589733824080
 11.4910793795532520 26.8153652837748027 12.5278206624419628
 12.9169074184341923 28.7356490408377319 12.5928755143541977
 14.2550995803374558 30.7655248156316325 12.5342860829604508
 15.6539038228045531 32.7447783540558177 12.6466227986478064
 17.1668291532585684 34.9064338003894932 12.8108103760999246
 19.0130809562061458 36.9931384693541716 12.6877327813946739
  0.3991322852650130  7.4159359280529591 12.3970322500192260
  1.7805778647047792  9.6919015901603824 12.4373538798935606
  3.5762794912695695 12.7749833292236197 12.3451864673304605
  5.2098868592796395 14.9422747714768782 12.5025205504812718
  6.6665383534066889 17.2096564637154223 12.5586914095254087
  8.3983749422932910 19.1894484851509795 12.6964246515686217
 11.0557998356573481 22.3488764353542102 12.6337554660905234
 12.6486233448100673 24.3120534660602381 12.7346076937402302
 14.0789236365769295 26.3300321104270196 12.6052499151939195
 15.4444091877911838 28.4039382950257746 12.5634772974237769
 16.8476120608633586 30.4790838917426363 12.5940743506996284
 18.3111386371937357 32.5536872415613772 12.6878428536754360
 19.9230295421894681 34.6754030113534455 12.7480455819912795
 21.6769493710703429 36.7268601858999233 12.6037665814662869
 23.0191540203209151 38.8401876338520822 12.5597334184632796
  0.1920447514208514  4.5897543349449812 12.4886739277026226
  2.8918115317835946  7.4389275982477159 12.7573617480579777
  4.6841856397512718 10.7610856670180191 12.4698981973551994
  6.2748529132550654 12.7859571873513467 12.5151057480505674
  7.7357113029293325 14.8884573952188699 12.5443599287277294
  9.1497791044940922 16.9950487486213007 12.5663089266170154
 10.5847839068259688 19.4377416086031189 12.5488267514524168
 13.5417197553148085 21.9094381541301537 12.7735750931898266
 15.2934009876051302 23.9952598735262690 12.6242616188146961
 16.6568252970035608 26.0954538164948850 12.5599475235076259
 18.0440907234234906 28.2174666829290608 12.5608569041742388
 19.4830171854905672 30.3344179152376583 12.5651438101220201
 20.9881690332172610 32.4384151192862475 12.5680946053000184
 22.6581282615107824 34.4343448548971978 12.4753754065393121
 24.1759532298408288 36.5265328469767567 12.5148265372391592
 25.5678085024419808 38.7023394863954380 12.5582177671327013
 -0.0018368651444105  0.0103566655399022 12.6238507406858051
  1.3413904529791840  2.1912267747110934 12.5918845628833154
  2.6117406051906573  4.3780622449024200 12.5899204323771343
  5.4362749640907744  6.6696345361747005 12.9431606178979415
  5.9033444718313488  8.8819195735466892 12.8616482044455189
  7.4716008150131259 10.7010568908124277 12.6222526646096718
  8.9290813269221569 12.6858839274718367 12.5636610571849854
 10.2924015279529009 14.7539281225286842 12.5570024441008723
 11.6022330797730824 16.8372998156107059 12.6149129297951834
 12.7051019330216768 18.8755386405715520 12.7910018636063096
 14.6490994219804502 19.9126648662631140 13.0802374385523770
 16.1656925092801487 21.6742267063449745 12.5374442192682398
 17.7434006008283056 23.7637586355001602 12.5108261409580450
 19.1977478378746866 25.9169616386780568 12.5107658187015875
 20.6238416522847068 28.0869546145721749 12.5061970090387327
 22.1168842640683216 30.2218726199756951 12.4393877492795859
 23.6163280016045576 32.1952267607635534 12.4654769635568421
 25.2928854396433032 34.2857157600917191 12.4635587830706083
  6.6968175571799122  4.6258906964018731 12.7154086841324432
  8.1431438742296542  6.5128966627538603 12.9315986276287340
  8.7126932302873961  8.6820342043401126 12.8857413513399930
 10.1839336296824907 10.5245398930242349 12.5998515872504822
 11.5524479915900571 12.4946180124907524 12.5334328365075862
 12.7986730685944501 14.5799449033964166 12.5603533211827170
 14.1716908089817348 16.6353715783374696 12.6629702629487557
 15.9171715786887162 18.0441201537884837 13.0057131012649929
 17.5901286310044327 19.4815339737417723 12.7733531813199992
 18.6631921220541415 21.4810280096743860 12.4384308315456238
 20.1944596678263828 23.5913467490191273 12.5227853100543740
 21.6975850235396877 25.7818062309756826 12.4884059691035496
 23.1480038164104265 28.0045002930222253 12.4598905102792870
 24.7199312683745163 29.9622557090698933 12.2380941677434105
 10.7871823200312864  6.3243811298790877 12.8106980840192488
 11.4481170366427545  8.4535273571251217 12.6962640260828703
 12.8931348929065219 10.1827378287420434 12.4329063360678571
 14.1258928096276879 12.1181536132528063 12.4414058524547482
 15.0873591230134885 14.1127103632826891 12.6971879442861564
 17.1520537155832997 14.8475767744279388 12.7365082084941292
 18.2899809665364153 16.8236525121441929 12.6227931046284993
 19.7935420586682227 18.9338552359192285 12.5577608065700179
 21.1048697945442854 21.0847811917502241 12.4826896464820329
 22.5687350990078386 23.3183590955682973 12.3923431649600193
 24.1575857012447912 25.6103639939024283 12.5426426404045710
 25.8276644894621334 27.7151789679738094 12.4794103079740566
 15.0211670141634634  8.3129343616830074 12.5886500807840811
 16.4342190278330946 10.2732172629694709 12.4769202789110594
 17.8661772387935542 12.2476544872235547 12.5390369082289528
 19.4468169434173639 14.4017258334259459 12.5878396982120506
 20.8154534451937714 16.5996292747219805 12.5629162367130238
 22.2374636572903732 18.7939331164889509 12.5026734011838965
 23.6202598401351267 20.9271436624999687 12.4211319924168997
 24.9928175279369675 23.0292549015988399 12.4459039890564842
 19.1448262556817959 10.0268343354435192 12.5689608345554102
 20.5293389905180419 12.1280078021998445 12.5593170289356149
 21.9486795085079613 14.2944718156763884 12.5684941126882013
 23.3485472974119723 16.5136081606074292 12.5529936014783967
 23.1076230734086288 12.0095803153180292 12.5784382267696575
 -0.0202384498677541  7.5730386316160114  6.9035537799414453
 19.1850813842677042  9.8850798552947019  7.2354803944969532
  1.0666762366326290 23.1028467069247370  7.1888638673271865
  2.4279482735677131 25.2349958963182281  7.2015837961909579
  3.8078856659657285 27.3940711115632851  7.2054334038138919
  5.1800346202864791 29.5730958020290231  7.2234528786679553
  1.5824309145873545 18.7964933780115260  6.9799428493229954
  2.3909064242694629 20.9146075027085168  7.1843287802368794
  3.6658479720793493 22.9835393690845571  7.2268184162912075
  4.9982619419794387 25.1154247040441199  7.2382210248106231
  6.3593746663051895 27.2818737421891910  7.2482261458126160
  7.7134734156237075 29.4845658582836627  7.2532178538309457
  8.9689159250927961 31.7301571018359390  7.2790354674998170
  1.2545822134852820 14.1164768876536151  6.9608612791592162
  2.5669653331486835 16.3700412332183944  7.2102949457075249
  3.8381292355469920 18.5062687252432490  7.3064691667547228
  4.9033430104198477 20.7172104655933431  7.2385567414988907
  6.2180493079139527 22.8391701808914078  7.2620142594060964
  7.5541158283572658 25.0121139466706737  7.2559344742063461
  8.8393856216307345 27.1823404090055014  7.2407844331883204
 10.2618230060017357 29.5018360718301444  7.2331422045619282
 11.2645950223111218 31.9067966429345233  7.0822928016436348
 12.6123054092648417 34.1500747140349219  7.1428494378507672
  1.6533154271937831  9.4765178938509944  7.0778642828054261
  2.7010470774536195 12.0132161654368552  6.9553593116508301
  3.9876007052141236 14.3229049311037002  7.1158963542413938
  5.1975370272316912 16.4459383321977910  7.2420472929681692
  6.4566392421206755 18.5382412643031067  7.2195188729770647
  7.5942936350905912 20.6356434191882059  7.3195161649330069
  8.7562526487754813 22.7958990097573775  7.2411485118688237
 10.1981471996885045 24.9161523779616978  7.2769316080337303
 11.1544519810475116 27.4245215900393653  7.1218656932523432
 13.3278527662289150 31.0912219772154188  7.0850086274907911
 14.7357419670244489 33.4888024894265399  7.2197110549900385
 16.6839714451912364 36.4745123799839135  7.2716037891698333
  0.1775461329783193  4.3649333498499061  7.0215466030236655
  2.0053882369553824  6.5058467124191006  6.9343609687766739
  4.0158420354832280  9.5151203053203766  7.1411787860000100
  5.2446532310290452 11.9594697407425414  7.1394295210517358
  6.5034363147178302 14.2066534455311899  7.2130745546699382
  7.7988415199079837 16.3856777517433478  7.2571046066317164
  9.1183097933375787 18.5087277551623970  7.2603053924761678
 10.3949457110252244 20.6244974337705287  7.1845345966097067
 11.4953703019682578 22.8508726277538443  7.2915132095411082
 13.1565910325044104 26.5653994252441379  7.1608239107410512
 14.2269725703070016 28.9940022430896498  7.2538457622539916
 15.7011303540462119 31.2891785135277551  7.2806217205997710
 16.9913476005730217 33.6840862034732709  7.4328179399771228
 19.1078294350191342 36.5141065839723282  7.3519198356329749
  0.0256302137282115 -0.0260930524914898  7.1300422823119289
  1.4662167014039049  2.1207674914878023  7.1428015476205946
  2.9943447589269598  4.2438545655159823  7.1598048900742164
  5.2998030389747619  7.2688623482942312  7.4696345579914860
  6.4458567936342579  9.5464955898030421  7.3571646999004336
  7.6920955437522585 11.8568966686511139  7.2671241096012169
  9.0151983276850114 14.1079544568715374  7.2470826728700892
 10.3839347526267307 16.3009424900618960  7.2749454269828204
 11.7670107558593990 18.4206661219078640  7.2979740296165581
 13.0776260466996437 20.7903853699084884  7.2591490918441437
 13.8558077251958842 24.4777456953891033  7.3738122940284967
 15.4438291245458856 26.8452649536855077  7.2828842394025406
 16.7723712006365240 29.0436353180613303  7.2702460077254791
 18.1155192802859375 31.2749303329926249  7.3044560390793221
 19.2899280412041740 33.5827372027714617  7.3890336536713406
 21.5503984401636650 36.5537082121472778  7.2627944076813682
 22.9863037449650349 38.8006242003079365  7.2232357183055749
  5.2496704127030611  2.8011805530352625  7.2691844338712537
  6.5476874795777817  5.0787496597684676  7.3836597708164771
  7.7996178129810882  7.2840674949854645  7.5613043287628487
  8.8411185515631381  9.5041508418739156  7.4135283321715759
 10.1563322340687119 11.8119635742516387  7.2605938241450225
 11.5572256286800901 14.0711886828471702  7.2484317630613697
 12.9813368686883344 16.3018466015875347  7.3445476847993820
 14.2690045397803633 18.5892347207285056  7.5243051398025695
 15.5784526761071795 20.5268507540448510  7.2413461517506255
 15.1438529726582978 22.6741496535037719  7.2382258155478647
 16.5303119815391213 24.6712174033564402  7.2481827081316492
 17.9210575978582227 26.7899636554375213  7.2441375514785546
 19.2561621126620750 28.9530054805629611  7.2459700381573340
 20.5469710218012267 31.0933250782812856  7.2445433654791644
 21.4751825685415874 33.2310443934687356  7.1050980417567944
 23.2729214509923885 34.4832553172471918  7.0491581706715012
 24.2265518126506088 36.6157331839984579  7.1874525109687957
 25.5805037550025673 38.7233817424652003  7.1939601006576686
  8.9823325493529076  5.0981396887871844  7.3697727353836555
 10.2585885936914725  7.3002674794417217  7.4741995777301149
 11.2836538365829053  9.5429320923019940  7.2487347376121400
 12.6844022692519847 11.8348789170433424  7.1554689569873178
 14.1373078787530879 14.1036568734606753  7.2390255897083300
 15.4549751694540163 16.4020676164607480  7.3143668292880637
 16.7693976242762908 18.5540470102562765  7.4489818560023071
 18.1253233129938565 20.4977403480314031  7.1276045513962236
 17.8540934546055396 22.6911657632018944  7.0817266349759285
 19.2000623294508337 24.5614483437870241  7.1948011221472425
 20.4377487377441405 26.7289303240890597  7.2025524061678849
 21.7150015711500330 28.8227537014575752  7.1617301778454321
 23.0223731568355312 31.0367389604602373  7.1159932220828779
 25.5455356056702207 34.2770971783677467  7.1421202527357046
 12.8061002804409103  7.2166851337094391  7.1762779653215727
 13.9386832072482161  9.5566521896766972  7.0521293540861851
 15.3467323510785079 11.9479999655496041  7.0765577028477082
 16.7273690185108705 14.3302542969163476  7.3180219387875267
 18.1209662864310062 16.5721343871278464  7.3043198704762622
 19.4714616531371156 18.6518459674762980  7.2636639314533484
 20.7127728615296682 20.8688155795261956  7.1728833561420560
 22.0407237659590258 22.6982823653421768  6.9979718543396032
 21.8013908858414283 24.8588183874214081  7.0426459885144146
 23.2631784902070429 26.4962047637524130  7.1940533242830700
 24.0164599547895428 28.5552537851926935  6.9634067451638790
 25.9903111830905900 29.5360711096085176  6.6727608350395693
 25.1808688544102175 31.6425843228221169  6.7598094562860327
 16.7178957825236054  9.8788991203446113  7.1414740761165882
 18.0351040901506572 12.2121846935593990  7.1972099698616283
 19.3086572397964567 14.3715964463487023  7.2613245169968854
 20.6805882383872159 16.4984833455323781  7.2316468147721968
 22.0231686767783437 18.6618023295435584  7.1457729919920263
 23.3658305592712807 20.7930244402028244  7.0684612133828280
 24.7139750997442853 23.1566661016530411  7.0899379451764544
 25.9181705194877097 25.2204074471802393  7.0790552568439153
 20.5364337395623835 12.1001535817319912  7.2226595162498688
 21.8848750133270151 14.2530057911167152  7.1974030952361163
 23.2515123867508819 16.4054352281431015  7.1252823460720238
 23.0919393953865679 11.9909348462051035  7.1852649989246764
