C  F 
 1.0000000000000000
    14.1466165051952064    6.6825431254043419    0.0000810720593044
     1.2860561856633392   15.5926008803819549    0.0001800321907278
     0.0000148737970186    0.0002411461439073   19.8120833611983436
 C   F  
 148  74
Cartesian
  0.7875076973339379 11.1695367027398351 10.7134098387737779
  4.0663655373589256  1.7781351951782169 10.7133019608638360
  1.1388773969903110 14.1185072881882157 11.1898790280280878
  2.1673298467137592 11.7234300967691851 11.1072746094577521
  2.3313942935754546 13.2332291459161837 10.6571094681877163
  3.6552042536833671 13.8122111344932943 11.1892773497794238
  3.8134449814992113 15.3156492971852174 10.7091064297665728
  5.1200783207602560 15.8896522883376079 11.2875820983302884
  6.7432529508904127 17.6896383341121677 11.3909345061468734
  1.1414785761464050  7.2873479479020435 11.3073778866972692
  1.6019501177140494  8.8398925667582464 11.3822601817416142
  2.8158987244722962  9.2338693030783432 10.4276714486495941
  3.2998183222589659 10.8434194480007395 10.4295001224245230
  4.6219418357077409 11.3547255276920538 11.0353623885705332
  4.8483918597610520 12.9274478248140028 10.6823080414085734
  6.1427406459613350 13.4526667585459752 11.3274722363825866
  6.3367477078360599 14.9748648696288988 10.9089598976686695
  7.7263245271100480 15.3182000797343427 11.5028060315721472
  7.9442755395751306 16.7319475842398298 10.9255334712197687
  9.3522539527520099 17.2245405884761453 11.4953571114974000
  9.7588873297421248 18.5290686791685495 10.8566976373852739
 11.1458232375541897 19.1266669611472260 11.3275391805057843
  0.3438891126740086  2.9402875275921301 11.1891510184413647
  0.5135279736739184  4.4160085419611361 10.6822084015448020
  1.9887667915417055  5.0062523876765201 11.0352880018142052
  2.0990957710853597  6.4575170349180917 10.4623390532775868
  3.7414016173284153  6.8786633069347891 10.2897772399787080
  4.0151791530626770  8.3499167052811210 10.8493583631053330
  5.3671723560908466  8.9007065359446607 10.2898016098589977
  5.8236038137418884 10.5335553412844156 10.4623876536486087
  7.0210751741651478 10.9479458472948448 11.3074223126795879
  7.3537489338117021 12.5503520654238425 10.8566282868682897
  8.6868134444837253 12.8504505912143436 11.4953066755509763
  8.9371782756490354 14.2989608899841478 11.0644635639667861
 10.2822246705891729 14.8453982211351416 11.5855901997749591
 10.4815141285048377 16.2834704707331390 11.0644867643706242
 11.9696317846953697 16.8224731674327934 11.5028245664816140
 12.3670777658060178 18.1975602362612783 10.9089992151180653
 13.7676451297887272 18.7938268096002048 11.2876187526895837
 13.9238553123968192 20.2124159789476394 10.7091663183173154
 -0.0062234083250833 -0.0046871859185138 10.6818787489962439
  1.3367922783170414  0.6079365152365881 11.1897231342044368
  1.5072127154796533  2.0833346608024437 10.6569805440251226
  2.8967647255651379  2.6961428347095819 11.1071703098032337
  3.0926389905910527  4.1169233967644621 10.4294219484472208
  4.7285098925719442  4.5026119747954514 10.4276169929431717
  4.8943902672189967  5.9831883872854341 10.8493309180197368
  6.3054277477024652  6.4817263327259411 10.2897736170073379
  6.5044317217833854  7.9279716390772021 10.8493541316805722
  7.8695934028783494  8.5246099805951552 10.4276645887989776
  8.1353831792421154  9.7728919444765499 11.3822728097891464
  9.5885291112952835 10.3584423011023752 11.3908511025343877
  9.8174068246139363 11.8774115824524475 10.9254782680934159
 11.1507175142557919 12.3955244645194611 11.5027732576621435
 11.4279818970823204 13.9537813636595693 11.0644599863020403
 12.8076066083323035 14.4612068924252775 11.4953259174243048
 13.0849920650118694 15.9268586033189568 10.9255254987803898
 14.5148920678026148 16.4881215900458606 11.3909229323306143
  5.6766684221596044  3.6482740013621315 11.3822012357566731
  7.2514482216039422  4.0257669865155332 11.3073418718874059
  7.4913026987507259  5.2700176724599137 10.4623269981681393
  8.8032932230267544  5.9000923608040967 11.0353004843882747
  9.0215450216884339  7.3007483441482464 10.4294604146524126
 10.3499073727317050  7.8414950218702826 11.1072317121080726
 10.5601290534560679  9.3134095661768566 10.7133908893363152
 11.9589508666883084  9.8527265276145535 11.2875146794389973
 12.1428490877847519 11.3637932296160802 10.9089199704245754
 13.5581105099337851 11.9568702005876126 11.3274568893188903
 13.7340384708559728 13.4567994121468413 10.8566400757470607
 10.0520823240392563  4.9176257745477967 10.6822172951471455
 11.4149084106671417  5.5085662388245842 11.1891840697454121
 11.5753953066471151  6.9445194280859743 10.6570393651166064
 12.9383322913499832  7.5346210614831728 11.1898062365141264
 13.1093746109608436  9.0081601862941572 10.7090365914751526
  0.1309086953549795  2.9578833041404002  8.6256754597310916
 11.5061866204027190  5.3153649417187809  8.6257060999991459
  1.1781333462188937 14.1152988499898360  8.6252059292137702
  1.2316800007783153  9.7344002955300866  8.4241432158259428
  1.0415867998688477 11.1485989655691302  9.1016077737032344
  2.3466020795191498 11.8865140030175080  8.5274990468635519
  2.4249271493647448 13.3115137952880609  9.1059838142474554
  3.7769084713792420 13.9879044178453356  8.6258036300512497
  3.8538596813008628 15.4307353913843492  9.1579812097243085
  5.2097507385223691 16.1148129872160055  8.7078071865813147
  1.4331192560069057  5.1076193382845769  8.4875023653669395
  1.5053200286948212  6.6160929058857878  8.9583541072914361
  2.5837986784027240  7.4551532553223501  8.3196899464297456
  2.5502972276260798  8.9464331009249296  8.8895249174283784
  3.7973262790667204  9.6472144223231755  8.3122445786758838
  3.6305482746150686 11.0688241585025402  8.9061022199315989
  4.9875276918645630 11.7852914046343091  8.4875807477661152
  5.0244959371149536 13.1816492306873911  9.1327543077020987
  6.4173801855337143 13.9462423221091765  8.7796913771834664
  6.4315635755995029 15.3637158551659052  9.3855638428758539
  7.7684686825162741 16.3822996992956469  9.3873861642993912
  7.7107945702197345 17.6572823383621298  8.4328069807999384
  9.0025681894626750 18.6338838344327726  8.5076825569872661
 -0.0062229912408542 -0.0046695076466815  9.1328796739423925
  1.3199692567729848  0.6435809448590201  8.6250505338540346
  1.3926657833561282  2.1252204026749641  9.1058544095134284
  2.6659203707851833  2.7698987754483637  8.5273935627244253
  2.7320835106967039  4.2906673683501433  8.9060232766216512
  3.8798507278552892  5.1459164510654052  8.3121920620813370
  3.8616411184635311  6.7285334365793394  8.7505415357768346
  5.1380012987034593  7.4203892417531598  8.2294301146523150
  5.1770216311768973  8.8716681693256323  8.7505672321740775
  6.4452099448388296  9.6150096538912564  8.3197163827323681
  6.2578081831204484 10.9685185134101300  8.9584060841079012
  7.6411607296361188 11.8429928211500002  8.5076041135922136
  7.6084068286516002 13.1097086075096172  9.3526481591940538
  8.9767848543140421 14.1107416842899465  9.5252274204164102
  9.0174280535904359 15.5700614851377868  8.9656805405604256
 10.2986935247045750 16.3433064437866875  9.5252533566914028
 10.1159609779706656 18.0288765762988206  9.3527055142211584
 11.4359280700513271 18.6420789420277835  8.7797470695096500
 11.4702163765214742 20.2306424041351818  9.1328374498337226
  3.9574751759405351  2.0086701700919245  9.1015024999435497
  5.0871677262477819  2.8804066903490981  8.4240647568140439
  5.1102537419701433  4.4163385832481596  8.8894729000610866
  6.3849952391150477  5.1910015013400317  8.3196647493556490
  6.3753406477051717  6.6609478661418313  8.7505417378253405
  7.7368267781160256  7.4680334938369421  8.3122203931400094
  7.7534524189827323  8.8983727108640416  8.8895259611021178
  9.0951564406199061  9.6463529690381655  8.4241446096646868
  9.1328099423620799 11.2125856441242497  8.4327335859564858
 10.2081301893325698 11.9000083555101046  9.3873353756096343
 10.2870732641063007 13.3877652234961069  8.9656555940463161
 11.5711970181475863 14.0822176005330473  9.5252274558867800
 11.5421745775411999 15.5784583433142902  8.9656811751706442
 12.8700769486807740 16.2539627111905816  9.3873861406353782
 12.6564101238443527 17.9210485378103002  9.3855955988590356
 13.9177794558457482 18.6036327193882514  8.7078391889030762
 14.0033006612936166 20.1198997280181402  9.1580387310951554
  7.6508752436413383  4.6765305215835111  8.9583335511263087
  8.9933569784049947  5.3682473482911872  8.4875077605835365
  9.0513717111397582  6.9016521251957998  8.9060553278741299
 10.4014815292372695  7.6047434987169824  8.5274515182466164
 10.4149416421301169  9.1038673481198042  9.1015864177650680
 11.7191463918326804  9.8178481971688196  8.7077367298688859
 11.7587020345495823 11.2515063644785034  9.3855180438637724
 12.9933679431474420 11.9479702412001139  8.7796700685870821
 13.1223079379759433 13.3976867191456908  9.3526526794314524
 14.2029477103696191 14.0594245862940870  8.5076310446586643
 14.0030724797671571 15.6664355303873197  8.4327858657226500
 11.5964105610927177  6.8244021097289966  9.1059114272354815
 12.9159012701365423  7.5022731256827839  8.6251327921623737
 12.9895158189346240  8.9856434906397435  9.1579097270092102
 14.3519636548653473 11.1239878628299156  9.1327330155188395
  1.1767591351165123 14.1360255624820255 12.5661099523885014
  2.2417249510885804 11.6857364949249014 12.4854214726401072
  3.6276928740031420 13.7979186571173482 12.5671328004191771
  4.9710075099380582 15.8923242897234278 12.6564214545467895
  6.6470759066352008 17.4054713718751408 12.7365272175889483
  1.1294434531593878  6.9845592434000006 12.6424362509264441
  2.0849380141303078  9.0121337116420452 12.6548939577392154
  4.5414315948559665 11.2394548336391527 12.4017656519629149
  6.0455116034715894 13.4388498517660562 12.7016625073308020
  7.7185274710815506 15.2576107017942117 12.8760562237238894
  9.2346535284430047 17.3077141781650994 12.8650559942388867
 11.1824851306691126 19.2177540707195789 12.7017307176965524
  0.3700086472086963  2.9235847630167475 12.5670064535875188
  2.1288352910804300  4.9941405328831072 12.4016924947429903
  4.1178495070453982  8.3014242581630366 12.2105787330215012
  6.7648830139347940 11.1097393782323532 12.6424860526407166
  8.6735689880429767 12.7069960488618765 12.8650029980296807
 10.2822242345649180 14.8453821327465043 12.9637965115569518
 11.9210708593404213 16.8594956360396218 12.8760758632848837
 13.8445073020308858 18.9215663387868851 12.6564596228336690
  1.3026658179043082  0.6319602619941974 12.5659541165952984
  2.8921969062892399  2.7793945313785029 12.4853185320097246
  4.8850359493979640  6.0963268665892150 12.2105530634962065
  6.4111137452216873  7.8632782555149143 12.2105741925281404
  8.0430664848365936  9.2684687572796403 12.6548983901601613
  9.8826997024497896 10.4172114983204995 12.7364478788327737
 11.2070739390853102 12.4190438168302446 12.8760244209031001
 12.9384503266948823 14.5214409969836247 12.8650245629435105
 14.3168967404172083 16.7134733621724614 12.7365213616787596
  5.2859966016873727  3.9804123730598420 12.6548365209704219
  7.5196747856492037  4.1667158600311094 12.6424053833159764
  8.7437338333185668  6.0274282243939625 12.4017065247747418
 10.2800793772610692  7.7958897151827991 12.4853784321914354
 12.0311583786836458  9.7222682693666567 12.6563525727578785
 13.6186767254801300 11.8795526064745278 12.7016464969518417
 11.4162991066359449  5.5395142740994041 12.5670400663623418
 12.9345758517262972  7.4930310073806838 12.5660364446466080
  0.1024083480371769  2.9457171665027544  7.2478196988269081
 11.5309872117592835  5.2967885174334777  7.2478502730056977
  1.1436361625523248 14.1388186117906827  7.2489754978196936
  1.4639241901638962  9.9242980565821064  7.0785495952581741
  2.2917104194606552 12.0251518959930479  7.1586612557346463
  3.7806094481506842 14.0186937668211229  7.2479483540207683
  5.2711659217568752 16.0584148959220876  7.3296592641745475
  1.3607062466941973  5.0413015442691913  7.1133111035633814
  2.4645942868595991  7.5360432598113700  6.9499929971400292
  3.8512994980851758  9.6758120073848470  6.9389940409852127
  4.9662881387176396 11.8811856904305273  7.1133913383895626
  6.4970005517650611 14.0621304290448901  7.4132881694541242
  7.7192200632658503 17.1445792095158929  7.1601697148861811
  9.2818098326497598 18.7515461633655036  7.1726220843261022
  1.3168630189640640  0.6019693200779165  7.2488193663548630
  2.5733169510628251  2.6530655929030402  7.1585527753957070
  3.8281120868405671  5.1783830694935071  6.9389415380602353
  5.1380014998276149  7.4204055317477309  6.8512238116184720
  6.5748514737245225  9.6778225898847143  6.9500192503408780
  7.3996555675592823 12.0260149722513159  7.1725442206963708
  9.0988883183596929 15.4909843520419326  7.6044588067697925
 11.4964667983133193 18.5152049921300019  7.4133410791639296
  4.8066041959859387  2.9866102666446803  7.0784698606544323
  6.3745591363431888  5.0473467338802989  6.9499650863981479
  7.7345932020318893  7.4070166529531960  6.9389688296016878
  9.1434773735234174  9.3502982116269191  7.0785453274878911
  9.5726243243897446 11.4762549777388294  7.1601052849662628
 10.3148395022820676 13.4978731345134459  7.6044359520093803
 11.4329490731707430 15.5474738867665661  7.6044599014177425
 13.8382166998599860 18.5786685254255701  7.3296916153694074
  9.0870109776982328  5.3387183486718053  7.1133169820543394
 10.5489781504980353  7.5829856955042123  7.1586118954183702
 11.7372954583363196  9.8992573833783553  7.3295903702589422
 12.8532097941864869 11.9590026203655224  7.4132656178573653
 14.1652122788440682 13.7587863912368871  7.1725657248475407
 13.5548342761166669 15.9155127980165432  7.1601570827016605
 12.9535051919667037  7.5204124653401649  7.2489022907889566
