C  F 
 1.0000000000000000
    23.1600752764470172    8.9327235260797391    0.0009138318132260
     3.8585677539518901   24.5687243122089036    0.0001390292986572
     0.0008361988332931   -0.0000122477187863   19.7486966391426009
 C   F  
 372 184
Cartesian
  3.4927392550279994 23.1290854826362207 11.1543444079312177
  0.9012741417729762  6.7678569686868002 10.6666503386254838
  1.4382592379270454  0.4270851032065330 11.1827404119777523
 16.8702515972914604  6.3165886736320793 10.5365024035786146
  4.0565571479477089 20.5466802012862821 10.5247480442022283
  4.6034862963800753 22.0739818738090605 10.5533810905131809
  5.8763955968274342 22.4301147621260419 11.3241777755021431
  6.3445467509860931 23.9262864441569185 10.7547915389128814
  7.7536937287234613 24.1373701609855189 11.3294609469005003
  8.2087825809439359 25.4432332207934948 10.7385627125386804
  9.7053710405612588 25.7483172245147358 11.1688187347846348
  2.5281078393843517 16.4251053729820100 11.0886521759032064
  3.0138855031065623 17.8176792628924652 10.5724952037659392
  4.6155450476641784 18.0350061212179682 10.5938734672964916
  4.9942819792613307 19.4994728314017678 11.0988324171608514
  6.4395271572768440 19.8886038466024466 10.5910937322704424
  6.8734227588613610 21.1641718872259403 11.4287076531897576
  8.3916182552522223 21.5904423300496511 11.3546192156869719
  8.7724716651930184 23.0485102889317410 10.8026285226741496
 10.2663450501491393 23.3163789069190912 11.2945910438270154
 10.8429746062322927 24.6666687727515601 10.7480210298883279
 12.1473752311168486 25.0638501865127417 11.4399064583698120
 12.6551374359768296 26.4774453488666133 10.8663331051400771
 14.0965923193152385 26.6813004620437830 11.3511830096304482
 14.4488662032775945 28.0464617076904617 10.7613281926931865
 15.8741827837447733 28.4636560517073214 11.1440019710400851
  3.0703100652337114 13.9532867585318510 11.3100068012037127
  3.6105163438475025 15.3679102282454014 10.7234286827332088
  5.0132945629150596 15.5149485580258428 11.3800412818340266
  5.3651073695298512 17.0610976864531061 11.5259728108010044
  6.9249481082298914 17.3640776276713069 11.5594545178032231
  7.4352221294385039 18.6109340365756672 10.7298197812984455
  8.8537803696783079 19.0290055205229400 11.2474696989221066
  9.2276886934666464 20.4108232651312207 10.7266651923433027
 10.7088599903806294 20.7665112206116120 11.2284144480106232
 11.0533784573120144 22.1635608793237928 10.6681738216944346
 12.6654770848649374 22.4315648910419050 10.6356993476757467
 13.1882927704472248 23.8546806410264658 11.3780131954640051
 14.4628204254393484 24.1659554195103219 10.6375234787585722
 15.1181228060721669 25.6082530534331738 10.7874065139705468
 16.5108707994818253 25.9340727605234385 11.2465309079816915
 16.9250227040723189 27.3951185164057840 10.5936741309873828
 18.3549697138679413 27.7690673510826507 11.1380790186190346
 18.8988477817982741 29.0598571243000876 10.4636632324420837
 20.3011189674523038 29.4309779223784211 11.0039240179568427
 22.1583721330767780 31.0281906053534406 11.2102245744384739
  1.6987227359055046  9.6158234510151530 11.1597787183593820
  2.0341340592194515 11.0156043154154801 10.5894413699424312
  3.6331216388010059 11.2890809217514292 10.5938753367217284
  4.1012955766718218 12.7256837886906116 11.3458175492141873
  5.4070034806159306 13.0388438769943082 10.6719701975543124
  6.0703772119842965 14.4864909614237440 10.8352231951762867
  7.4320204021014362 14.7645906030326692 11.4265760858640739
  7.8537696050814816 16.2082236985277532 10.9228116119164103
  9.3268637112497945 16.6126123159861017 11.4000267757488913
  9.9019221890268359 17.9274447071948622 10.7443917601243601
 11.2977835930616362 18.2857364224139012 11.2304907470566775
 11.7161020977026133 19.7395756990042166 10.7231539384534287
 13.1671210806724819 19.8554847450388117 11.3379703468387394
 13.5461806496304913 21.3806377029798398 11.4352063231231682
 15.1497794690314684 21.6326069965613463 11.3495636408349565
 15.4856939758526622 22.9236024478718399 10.5980207553171315
 16.9651202763667577 23.3598467066260511 11.1522221303863169
 17.3683012932274714 24.7945956204873141 10.6865096151110119
 18.9039472148434342 25.1570301466045159 11.2067305533915338
 19.4881607814966991 26.6679508166842609 11.2468758792354038
 20.7916544839918238 26.9137782682272650 10.4016832067953064
 21.3940505096352354 28.4259695987382486 10.4714735218896049
 22.8230024329142793 28.5959034808621979 11.1401698139545537
 23.2537721164875570 30.0203642567871540 10.6805806459229586
 24.7107748747913760 30.3566431104313210 11.2669705884659823
 25.2166780445313243 31.6877217109623359 10.7116483753313805
  2.2826547054885786  7.1299003662112836 11.1834787582195521
  2.7094786312359540  8.5848200293261705 10.6740488243860074
  4.1452466007610882  8.7059231109830222 11.3119996978659607
  4.5082442803874017 10.2375271181580114 11.4184653038084019
  6.1108736718584407 10.4894248610725977 11.3735009846339512
  6.4524865978682664 11.7931662322084065 10.6497374884831064
  7.9260313544670549 12.2169269576538078 11.2508278038485781
  8.3276927809286612 13.6626553565841693 10.8320171214280165
  9.8688620762992638 14.0131993928359275 11.3939451468382167
 10.4608231653097992 15.5181433263328508 11.4519652700446315
 11.7748321036389481 15.7547794364032292 10.6184820058367499
 12.3320186904794085 17.2868996105383594 10.6539278581805608
 13.7303440411219189 17.3775646300365239 11.2622566510964202
 14.2365954887900692 18.8136484186538802 10.7788785665090749
 15.6918304551764436 19.1550690630373346 11.3036195525853245
 16.2072082594943758 20.4904087280219009 10.7440541733202526
 17.6624831229068668 20.8640587713144363 11.1517306395027873
 18.0253521285926226 22.3169015035113674 10.6241241543612936
 19.4782832179080998 22.7383422548848309 11.0903289884574274
 19.8421385006795603 24.2168604352601307 10.4512448232320683
 21.4397589862199993 24.5259374264186896 10.4087556227359048
 21.8657161263187234 25.8702225283390064 10.9744870027236967
 23.2531586075694534 26.1968707913923353 10.4161584192044785
 23.9028969799964628 27.5908224988359585 10.6473683956551373
 25.2921360085505711 27.8686482852587858 11.2163787507742985
 25.6697714110993225 29.3190747199486061 10.7241345657339533
  0.8484033742506905  2.8546914623403041 11.3348625563969172
  1.4237406858624593  4.3702686022183945 11.4042917138145832
  2.7669406768283769  4.6032621925771418 10.6007579296893280
  3.3317281072976779  6.1334621753228360 10.6377745865604467
  4.7238642058808837  6.2302519650913366 11.2688569226081583
  5.2323386065039790  7.6632633407641588 10.7787038589310491
  6.6752953323654971  8.0055379567871174 11.3265865819090603
  7.1898636956054256  9.3480474812531575 10.7812892526254078
  8.6330623422771620  9.7203129573439320 11.2224802442443536
  9.0024938575686591 11.1788888857669111 10.7256533845717144
 10.4533476258000828 11.5913058200092998 11.2215626462149149
 10.8079903981481742 13.0672048704692791 10.6271295585412613
 12.4119424110015011 13.3346592761798775 10.5965596945435401
 12.7726105719058527 14.5776677798827841 11.3343442743851384
 14.3250775548091571 14.8551815105425273 11.3428878038324967
 14.6050587735863768 16.2125306282539654 10.6831002673639794
 16.1066333972884230 16.6617813893006073 11.1062588283889241
 16.5893449049851966 18.1168672455982147 10.6918896203842664
 18.1900453588976774 18.2835308057432222 10.5559684944869954
 18.7509551698256089 19.8098181391191623 10.5459150355160656
 20.0542940503355389 20.1714083152915613 11.2733669305548467
 20.5056159846461945 21.6721020325116314 10.6517758263357933
 21.9148114834517642 21.9286302574045529 11.1853555513014200
 22.3463016472299536 23.2298246621058802 10.5374311433479360
 23.8108922565211216 23.5950230517585311 10.9416998081251471
 24.2820608914482605 24.9562591472595336 10.3784302885860047
  0.0015565510379101  0.0155573587953092 10.6590613508226379
  1.8055092686435525  1.9081110897578220 10.5952011265496733
  3.4057129350120299  2.1833032152150604 10.6090753648503799
  3.7482334793031353  3.4374839208182815 11.3414551753498944
  5.3091721226918676  3.7122965888369106 11.3864409225754812
  5.6098015930383971  5.0587006876616813 10.7193174567117602
  7.1234749142605009  5.5096061791081192 11.1491468010885715
  7.5884199577412632  6.9694856654266166 10.7240923124252241
  9.1688357269343612  7.1304831040716552 10.6145661333666084
  9.7382904107622785  8.6724322261035436 10.6245436351596432
 11.0302393157966616  9.0392695852399410 11.3756080463069882
 11.4907453482351816 10.5214878184046778 10.7719608284440849
 12.9198903573719832 10.7144541067087857 11.2935009575888223
 13.3594521096972851 12.0238339176013049 10.6999236630461780
 14.8603501798874760 12.3260142673367792 11.0981332827342474
 15.3112741926612372 13.7068338758123573 10.6604908105322469
 16.7318528112636216 14.1311637086758441 11.1584230769505997
 17.0667943181835611 15.5794736978555104 10.6561040335519248
 18.5567214187950249 15.8709652813314559 11.3144332607310751
 19.1027921059685930 17.3582188378314832 11.2841157661775497
 20.5982340634258669 17.6335812069596116 10.5424529149294148
 21.0645071388297538 18.9173477990165217 11.3427523001430028
 22.5640965963125879 19.3773121627533094 11.2420398520697447
 22.9222292841821336 20.8321651545242474 10.6694817154787138
 24.3937311782997064 21.1254622760117670 11.1703186927361493
 24.9566123742460881 22.4767232924367413 10.5887262957393311
  6.3165163450703776  2.5569044183770031 10.7367561909911711
  7.7234136555863433  2.9721617915044267 11.2861624965191645
  8.0928227028773847  4.4120738005886366 10.7095352888524289
  9.5869509988767820  4.6249016090891368 11.2953461337954852
 10.0852575011981873  6.1862661630781979 11.3229922868973674
 11.5072621203150831  6.5592008286203303 10.7087987291743296
 12.0423070317703740  7.7842387408197942 11.4852066517299374
 13.5617131871404570  8.1621532902036069 11.2551006687018855
 13.9257968213923107  9.6285986168010940 10.7206073047508994
 15.4281050556292314  9.8930176938049943 11.1960990216014427
 15.9937934032172908 11.2489048923913035 10.6439765992364102
 17.3105455197222184 11.6720494510070747 11.3041002981982572
 17.8046254470760559 13.1164598327343214 10.6427933918226021
 19.2209801400278550 13.4153482244756113 11.0865738814715264
 19.5794188070624635 14.9422123118468519 10.6515824063587115
 21.0250137741860996 15.1309546332030269 11.2181089747956584
 21.6380430926142644 16.3852992909526023 10.5906342775270819
 23.0128903702541798 16.8000212417962906 11.1567253667791384
 23.3973600218939204 18.1812252737741709 10.6432676911562840
 12.3605752411035823  5.2486877987911278 10.5273563927751237
 13.9070856883389027  5.5839078596811191 10.9261193123873905
 14.3656706865259043  6.9773956565875315 10.5333352003857037
 15.8494527094916986  7.3091585219645863 11.0673710199910413
 16.1986017089056524  8.7363969519258067 10.5532924293277297
 17.8045311033907154  9.0167427926103620 10.5152834519981511
 18.3212448837300634 10.4588682558751866 11.2651860246051854
 19.5800850929372281 10.7954649335723012 10.5429201991310588
 20.2378533853244988 12.2727981417714727 10.6751917980355202
 21.5855622953013828 12.5442680860562490 11.2826094717465342
 22.0130933325857399 13.9712517655590673 10.7429882397728917
 23.4468623233082134 14.3894099294776225 11.2962368407178246
 18.6667726415197031  7.9841416510220382 11.3334833153731633
 20.2671921051043178  8.2575570116100696 11.2907610945323675
 20.6191800279296089  9.5562739547891056 10.5496009761927887
 22.0782814627797848  9.9875833501503504 11.1628479018874547
 22.4855822295803449 11.4278182566984299 10.7345961632865876
  1.3244688804563685  9.6551615824153725  8.5672552039674912
  6.4287235664840683  2.3603975157348178  9.1564260756185494
 14.2530884351972400  5.2708267060571128  8.2957770835529363
  3.7752358469163929 23.0980913629074394  8.5591738068730923
  2.5402266757263949 16.4241144524057425  8.4723490189565815
  3.7978375436166361 18.6999017760271649  8.4916345427402167
  3.8653555541569284 20.1907415255677911  8.9697133510543896
  5.1013394953707083 20.8815154571682022  8.4294961302716018
  5.0313628592094943 22.3019472124720863  8.9972510932898970
  6.4163124794272184 23.0598973928088284  8.4390445916617089
  6.4824442737508692 24.3935917696354316  9.1960368273396362
  7.8581460115663377 25.2583926446640170  9.2190426618860730
  2.5422123149725571 11.9643909245497007  8.5093103918475670
  2.3997202808471592 13.4291284616958322  9.0426388351830855
  3.8219835176806312 14.1294309731466594  8.6802333405085612
  3.7755931531045674 15.5970484113677923  9.1206517855414795
  5.0287846135760468 16.4293625456067680  8.5651459409771586
  5.0195068160219538 17.9180125250531646  9.0686475805717777
  6.3592703065719771 18.5905423755672423  8.5907010070244745
  6.3812610262768503 20.1019737995698122  9.0241465975786568
  7.7218941413467137 20.7461920157664750  8.4926647421341137
  7.8538016158583872 22.3165021761197018  8.3991746682628552
  8.9941115538727967 23.0313526940462481  9.2361633749545522
  8.9727344463426668 24.5712170884724976  8.5025706543480535
 10.3179921725926889 25.4274815158697827  8.5009718029353536
  1.4091928992836920  5.2763003147579211  8.4756110473480586
  1.2248950677311408  6.7129347334721734  9.0945710719272732
  2.5600672844435692  7.4355450435979211  8.5997118636734378
  2.6099422003002783  8.8725299644885069  9.0965308294796561
  3.7665804971851342  9.7539984135102422  8.4875880213512414
  3.8638063872607540 11.2554795529709821  9.0341181557648245
  5.1667956125274772 11.9899140625246847  8.5251410219578183
  5.1321856967268413 13.3696147589862271  9.1475011282572307
  6.4013223426106380 14.3287910818214641  9.3176975342307493
  6.4434250585111066 15.6587602694873276  8.6264384205065046
  7.7273718557597704 16.4198518043769184  9.3478443340816337
  7.6320837953016092 18.0158058031656410  9.2846798104691768
  8.9547399855423500 18.6425655334167573  8.6899280510965529
  9.0281324404658552 20.1690905654833301  9.1555873907032179
 10.3070410366543932 20.8291842492466621  8.6477575565887097
 10.4260398365778375 22.2760972523341962  9.2049920258815465
 11.5325642779934174 23.1501509306418605  8.5925256214529107
 11.4259285680694678 24.6132595931912803  9.1712813505802071
 12.8597595000371587 25.3145592915936675  8.7712834166806761
 12.8479923845751394 26.7597484513153070  9.3334639787769049
 14.2252942810300578 27.6804718035749246  9.2479081694861698
  0.0124009682284468  0.0207306368038419  9.0769844012695291
  1.3672060319040540  0.6844813809392716  8.5873374876632536
  1.4213737606740242  2.1731019333687493  9.0312916986782330
  2.6259007868512509  2.9595351146888262  8.4922779974568439
  2.6480768648125710  4.4448775529984221  9.0353984291721545
  3.9446745375094752  5.2424536318330270  8.5650234030818062
  3.7420258495655752  6.6287493074170252  9.1772157362013651
  5.1129477523007099  7.5021652077874190  9.2141118614490232
  5.0628470065075177  8.8681662930196765  8.4027715624800088
  6.4078995995349812  9.7644801511429034  8.4797194868831287
  6.4327166287079249 11.3360289824442617  9.0852578746263450
  7.7448041445031146 12.0377974103160383  8.6562721032355903
  7.8486102581887023 13.5597473541642408  9.2775293011919757
  9.0318047652219562 14.1713401619441193  8.5227391261193830
  8.9386648837639520 15.7869455151539260  8.4900302093562345
 10.3640954832155767 16.4529014367846287  8.5485386520592730
 10.1883968527769113 17.8829989113213905  9.1732181544477491
 11.5172028791990062 18.6037524647295491  8.6457768907832691
 11.5920167599040109 20.0369927386447451  9.1478377278496286
 12.7421102951996641 20.9132476348451775  8.5155662834088464
 12.8571015742745569 22.4115167620355145  9.0670015173016552
 14.1478055306158801 23.1289134988130165  8.5118115662959166
 14.1548801189309117 24.5080216190056923  9.1330902856287288
 15.4291487882734675 25.4528211915837623  9.2186721109533192
 15.4297267806727429 26.8422629955810308  8.6205815086785194
 16.8082740227032978 27.5120787063017929  8.9585235594888815
 16.7525738591673807 29.0414814031660526  8.2717835282430840
  3.8262909833643941  2.2866722199012486  9.1064865594597393
  5.1530639729221495  3.0645180307844697  8.7084175645271902
  5.2599910912655625  4.6237806690860168  9.1498717242826579
  6.5143567745071902  5.1818876596819479  8.4923882096812982
  6.4515131421518062  6.7722572765977063  8.4818240444753172
  7.6022530201031735  7.4072425345781321  9.2032090687438917
  7.5294609159336892  9.0271255373342552  9.2191152712784650
  8.8969572766672229  9.6965441465165600  8.6237986468273480
  8.9944926131665213 11.1918770053413894  9.1446347036581059
 10.3295313442387755 11.8565675462528155  8.6271641720082020
 10.3900116164661007 13.3441080585024832  9.0770642551536689
 11.5814828838002661 14.1287657573647145  8.5074977582662399
 11.6205762069409122 15.6101566959839069  9.0594470307101478
 12.9074400695064035 16.4091392674270082  8.5598509963281728
 12.7158907319604282 17.7887604144615317  9.1905609551101239
 14.0913373983243133 18.6564031825140049  9.2169381362322831
 14.0288563952832579 20.0104978308394053  8.4041917862942288
 15.3855524282255729 20.8820257084708665  8.4419711721570287
 15.4237751305976243 22.4538419139531165  9.0353005946920071
 16.7291170665907210 23.1314093934444713  8.5652780907654655
 16.8655210329480241 24.6554664287747372  9.1541983552984387
 18.0613282941057882 25.1950706846307320  8.3574147056883579
 17.9693728264727106 26.7872075110662955  8.1873394793974565
 19.3617690638037345 27.5482803980843833  8.2610438170576739
 19.2329376746447984 29.0014018318157802  8.8932969677295350
 20.6001548155218117 29.7180751510660102  8.4454131033875051
  7.8110300846663829  3.0068293531171189  8.6953192120142688
  7.8704640741023004  4.4879818153581370  9.1442199726430324
  9.0188856293346085  5.3244545680059847  8.5559623786615884
  9.0715736781580318  6.7824097599814523  9.0892408330183763
 10.2694108154087171  7.4690979776895885  8.5041977015518810
 10.1664792218647673  8.8970953180079935  9.0466652800434701
 11.5264677768775829  9.6566904244090122  8.4452698984619143
 11.6008177574686062 10.9885411926303096  9.2039287845824465
 12.9745945363575572 11.8433893097900054  9.1907974042922334
 12.7954299989480642 13.4483504592857841  9.0834516148894799
 14.1119726927444944 14.2250451783661855  8.6626839586685271
 14.2384767705383553 15.7848391761175240  9.1052995084890789
 15.4938892308698843 16.3529917399251268  8.4337738783188101
 15.4294123718331804 17.9331120775799810  8.4646024526381041
 16.5898047362740186 18.5318889671078466  9.1815196869141165
 16.5245766794140145 20.1502803127975660  9.1738021398493981
 17.8881214935594386 20.7994850527160331  8.5503951798658981
 17.9938296219418845 22.2969422198235989  9.0424600218439419
 19.3372994636972528 22.9329233026560040  8.4965636326035519
 19.4055027811080940 24.4304147063236456  8.9022388126195544
 20.5698210679265507 25.2165958923369899  8.2825152973958858
 20.5998967676674347 26.7285223868436113  8.8179275598206566
 21.8943672407658241 27.4665349289757934  8.3578171698554904
 21.7776305168334083 28.8928809582005002  9.0233044971746299
 23.1265996612940228 29.8249753590101712  9.0996504033654215
 23.1068954366820059 31.1867464892493906  8.2798533203258362
 24.4465632445649028 32.0957275924240264  8.3967202410994872
 10.3898396595632985  4.4745829230969054  8.5139583301974859
 11.7683643021790765  5.2030373414431192  8.9815115152838203
 11.5603730780962319  6.7673840969766124  9.1018402520335009
 12.8547392839971533  7.3610446925214399  8.4683796746343685
 12.9671199276477989  8.9100705163305420  8.3360844266089025
 14.1271640102712492  9.6217353513194617  9.1486902407793380
 14.0699584222321494 11.1461819784933347  8.4472023711605981
 15.4105472688180019 11.9885019352151669  8.4136961680978892
 15.3789786522611678 13.5045116047951055  9.0900349337488073
 16.7160370139167291 14.1423017785329943  8.5797725097843713
 16.8336209021356957 15.6163030236940017  9.0903715597606656
 18.0819275047527164 16.3456764041585032  8.6399482267995644
 18.0690779191858013 17.8755411207395021  9.0473244042666288
 19.2476174225647512 18.5753149777061459  8.4350008254880695
 19.1624757304477846 20.0076892465533334  8.9755903694078061
 20.5321906420429841 20.7493665703247210  8.3640737405144456
 20.6072614117355251 22.0961734000990688  9.0818853904655050
 21.9742112291517486 22.9682295518475748  9.0274838138006714
 21.8013041232550044 24.5291668799035136  8.8086061678110159
 23.1185093369380823 25.2517311214188958  8.2666618358081596
 23.1040686161362601 26.6456174356114062  8.8468183231650492
 24.3308622582761771 27.5766618129789158  9.0695178158129259
 24.3709756038582874 29.0173523699138194  8.5363554861873929
 25.5882345730235272 29.7295180643571761  9.1245084864979429
 25.5495838362912480 31.3535517986474339  9.1469983979966454
 14.2076006219740396  6.7699255280333990  8.9729615752730947
 15.4840895165725421  7.4480504403142023  8.4913569129723889
 15.5807383295830988  8.8612157858385121  9.1002056533468174
 16.6757999088229134  9.7244793400853204  8.4801953257825282
 16.5435193619167222 11.1759670926766859  9.0604714087103062
 17.9539254742638619 11.8524769791057398  8.6269298812311774
 17.9422303378105674 13.2983744722905399  9.0770368022187409
 19.2409988137244596 14.0837158456693121  8.4122071712928186
 19.3772775595347717 15.4588234568140432  9.0731528774398562
 20.5751044063060320 16.2907485775332184  8.5047352213804093
 20.5260449424628817 17.8125304117777006  8.9775485893715832
 21.8745025235286406 18.4649625556564914  8.4277965658864229
 21.9856177719152832 20.0283700134060574  8.3043273096465100
 23.1405871800399261 20.7721733423003627  9.1051781891851142
 23.1109998266989791 22.2732858671899443  8.3267300309279619
 24.4705945628594463 23.1251928151700277  8.2980851187996940
 24.3951407161113458 24.6273683924111459  8.8350091116894660
 25.7407423305438243 26.8413614879628462  9.0715401874890986
 16.7757199896121456  6.6067318174053238  8.9657054254096629
 17.9374089137533055  7.4891390982865760  8.3586523338312251
 18.0174103780756099  8.9914031362529485  8.9454223481342350
 19.3221974852578420  9.7250440222930585  8.4240926144974999
 19.2921177836189628 11.0991505282246106  9.0343408057960097
 20.5955631144928368 12.0534382281825021  9.1652316348356173
 20.6479767112081376 13.3535140674900390  8.4388979228086782
 21.9438599845941305 14.1574935676302562  9.1777162100177438
 21.8743389977647524 15.7806344592078620  9.1335669406283415
 23.1757581763652283 16.4048180454976880  8.5766745381174356
 23.2100532254752849 17.9215131300919523  9.0683180940466013
 24.5867181347654054 20.0293124262766682  9.1117503062761180
 20.6029152992193225  9.0864858542390738  8.9859077818982325
 21.9289410517932701  9.7888495104343551  8.5642114830262912
 22.0359993139254051 11.3021424723184101  9.1687343655648732
 23.2394658240150918 11.9137797606335489  8.4332490779249323
 23.1515327808002702 13.5274176405500430  8.3711666282770096
  3.4986905753148307 23.1173920262856356 12.5282571072487574
  1.4216155451486177  0.4674570369950015 12.5558982114553466
  5.6964862869996589 22.6857954782833247 12.6579036098496100
  7.7622883095600965 24.1014144052090415 12.7031550167560816
  9.6279100223134453 25.7359738506156468 12.5545394416585587
  2.3299448583144722 16.4996065099211400 12.4474550178724108
  4.8782162212594296 19.5623387850718657 12.4662344150755722
  6.7707703055079520 20.7278085667494061 12.7307521160620620
  8.7190454516426783 21.7038054353216836 12.6877129113610003
 10.4076260121849238 23.3576275352104155 12.6654230388079920
 11.9776948943443120 25.2744961007762079 12.7822576839826159
 14.1775364969822348 26.5860453192361561 12.7225088087053564
 15.8488997436757000 28.5427555149958998 12.5259174230945636
  2.8135291752589926 14.2009645617671563 12.6308427475897052
  4.9540329687245963 15.0924173218155619 12.7000239428669044
  4.8536110402115415 17.3105972368601435 12.7826502877172707
  7.0719700490548494 17.5660586143956188 12.9092813777432234
  8.8787525022245983 19.1346509091814312 12.6207296172768704
 10.7962025226153830 20.7638164008801027 12.6049876483456522
 13.5964020211061829 23.7317514340368234 12.6856207311868321
 16.6235095409530587 26.0372676692252760 12.6094315140918987
 18.1204458544539584 28.0086424399198393 12.4737703398091622
 20.2219525054899627 29.3471271125398836 12.3769088788926958
 22.0644888453029999 30.6453071012152236 12.5305263865719390
  1.7689136307821482  9.6141550409399397 12.5377975409228704
  4.3875720936545539 12.6012503702719876 12.6786654749607184
  7.4575936557943114 14.7874685552667806 12.8006065702055825
  9.1499632786614313 16.8552547608448400 12.7394164820381253
 11.2744770869541426 18.2200125678152141 12.6070446155775304
 13.1210981659420245 19.4899895897848481 12.6664053812080759
 13.1831915053739728 21.6275485748625158 12.7422224910163369
 15.4544910281028738 21.6491997938384166 12.6844750170046403
 16.9629002747044808 23.3506779987859083 12.5263400776375402
 18.8054850004502612 24.9073798713997121 12.5492603981467958
 19.9401774881904181 26.8242603143685301 12.5371345477312008
 22.7845081147438009 28.4060230983466298 12.5068707472174836
 24.6121946268564464 30.3508013297532422 12.6379750267916346
  2.2130377970694806  7.0691264459260363 12.5598631404643690
  4.0681193259271744  8.3400364393177568 12.6390179413817343
  4.1260780334733083 10.4761999761330671 12.7178426511463307
  6.3847395470292261 10.4903157354970862 12.7147083322488754
  7.9106512142334999 12.1750689207924854 12.6239919510890530
  9.7416507108931913 13.7649773878671073 12.7350978926017877
 10.9228185653271623 15.7008624780980899 12.7411177408120970
 13.7081204840793784 17.2085717404787779 12.6307509352646772
 15.6673713890620991 19.1497757971221176 12.6770834116613553
 17.7151408963520609 20.8548247929271895 12.5246979730244927
 19.4952360677581318 22.7781432942235931 12.4625767745847913
 21.9549600175471902 25.7989512683425879 12.3480884712525167
 25.3628500271509054 27.8896624338547383 12.5887381774655740
  0.6983645711030066  2.6059409426836582 12.6728618571880762
  1.8226401941842416  4.5753179481524331 12.7088840388533821
  4.6813612561142817  6.0767025179798626 12.6386466423352495
  6.6234563461845886  7.9940852940492411 12.6995710359667591
  8.6511591247367186  9.6999057931273587 12.5965088521795892
 10.4686162115203345 11.6357410151217060 12.5943116721222719
 12.4903434205703938 14.2526597078831241 12.6420267200720211
 14.6216811639067359 14.8780574176154303 12.6763239676596733
 16.1376620387321879 16.7221320384133278 12.4913893996919594
 19.9315293117691681 20.4337105331004985 12.6114264063663555
 21.9539592506810521 21.9293354930836273 12.5580829042183257
 23.7169690758279792 23.6589038231252111 12.3218653086820176
  3.4286258879457390  3.1458017204673459 12.6464290019121375
  5.5654742545722202  3.7520530127267451 12.7268991465065593
  7.1415203209730072  5.5769961998266124 12.5343234874195488
 10.8568591359436919  9.3084740526559209 12.7065844733970259
 12.9736427786462549 10.6524580588270936 12.6658286854652626
 14.8093420859594413 12.3042633803990178 12.4842722277758345
 16.7433708826826653 14.1219907233800939 12.5263178613718722
 18.4384955127764556 15.6174914904558726 12.6514681615015316
 19.0072936496847262 17.7683434815084169 12.5932182899727447
 21.0405498835562383 18.4615781841694400 12.6456718874599296
 22.8974196130711860 19.5300377453971024 12.5704907136482138
 24.5162178448833963 21.2064473088754895 12.5407870633621794
  7.6813262928301649  3.0052169045952231 12.6538289057654421
  9.4994680568355037  4.3580448319938148 12.6384961274591134
  9.9916212828728863  6.5211623045415763 12.6553122049732067
 12.0292829329635911  7.4055816561804830 12.8051305587873614
 13.9916506039063169  8.2419674916938259 12.5581875155087204
 15.6046536186401585  9.9302282524980559 12.5639366019501839
 17.1562554636593916 11.8968585330134271 12.6425544167807526
 19.2618975100709591 13.3691433390984304 12.4719690811848878
 20.8962486154506379 15.2505079811561259 12.5862358564554739
 22.9760001236033737 16.8877791246043252 12.5327425996750268
 13.8528635235524593  5.6378616554776997 12.3109206702754683
 15.9489113692081688  7.2412899113446620 12.4397059652844586
 18.7253036324196245 10.3222436738833139 12.5720453895049733
 21.5954500888975112 12.5864243523189252 12.6554843529720742
 23.1584140689115010 14.6344272631222019 12.6216838903807318
 18.2679188511281225  8.2216509489310283 12.6325886211232632
 20.5349773486770388  8.2684995923495119 12.6325810780394452
 22.0346537706577443  9.9653120820377179 12.5358253785904736
  1.2524426600981171  9.6556253623303494  7.1889628723030956
 14.5499060639213571  5.4304703016172349  6.9659017919385029
  3.7664891407290999 23.1119665222976813  7.1855986643167578
  2.5840367165109290 16.5064473759964550  7.1022217730938912
  3.7752261509914633 18.7665842876077562  7.1157753380235249
  5.1978832459342277 20.8623194144392698  7.0613167169771947
  6.1722593552828862 23.1653326734521663  7.0961339122053451
  2.4483578921514786 12.0539709311881928  7.1360846599008703
  3.9382905347554069 14.0995817131147074  7.2969136726654504
  4.8222054563319734 16.5227939685901966  7.2099587373556373
  6.3903898479574419 18.3872777139145320  7.2292718300234435
  7.6860353761073785 20.3853887795509294  7.1625841450367327
  8.3156410243822592 22.4413444576956636  7.1064783587357878
  8.5870505680645870 24.5807733370626131  7.1847613034991573
 10.5603857873065579 25.6303219299525367  7.1701258954144551
  1.7587630531736023  5.4083759845728263  7.1485823537904114
  2.6286980683971266  7.4931157322985742  7.2229486505388802
  3.4886221262341475  9.9773764188984035  7.1561029130426590
  5.1500001155276456 11.9753864063499851  7.1513833047342059
  6.6366551677771337 15.2838649151401000  7.3105456094037473
  8.9718595186068484 18.5511097382277654  7.3160140870068675
 10.2215207801017840 20.8347491545655892  7.2713923881776772
 11.4006680682277892 23.2651837847172409  7.2237872431082266
 12.9075823847215521 25.3264737860641880  7.3893078728170076
  1.4059008130824515  0.6641150500281771  7.2143938975808384
  2.6325859273954677  3.0040683713790566  7.1196395168392828
  4.1086793553956049  5.3031059394979936  7.1973177105025172
  4.9635078944571154  8.4308275746323673  7.1000231752922689
  6.6210077688279094  9.9659754530634164  7.1427677438046855
  7.7537452826317068 12.0863012453784187  7.2834476565662758
  9.0724409259048286 13.9157674849100008  7.1779480146803749
  8.5860244978016631 16.1301239292302405  7.2030792959372567
 10.6797160093569232 16.5811923487618849  7.2110566412420249
 11.5464677030999816 18.6661375821586475  7.2686197662257630
 12.4491861360099385 21.1503791921222124  7.1895765900604269
 14.0827052662978058 23.1208580149172818  7.1400538390812880
 15.2461779509076649 26.7087111551334679  7.2612294586881427
 16.5108550944041781 28.8783665144002022  6.9449846590545503
  5.0916086827777853  3.0103444433427007  7.3235806888551638
  6.5251445038670788  4.8406485721098536  7.1686695243361394
  6.6323432136173679  7.0898931680737105  7.1605966305661157
  8.8560845177251366  9.7054012336063664  7.2506121268313244
 10.3309515714495763 11.8458970967100363  7.2532738698857067
 11.5605889072563102 14.1811309507962484  7.1354768444598431
 13.0413800240850861 16.4836826915629189  7.1890062974413818
 13.8822237969456683 19.5529209600359799  7.1090069324339575
 15.5738973139571630 21.0567394703117401  7.0971262495651439
 16.6924330010919313 23.1293175467693182  7.1927261501001203
 18.0901813001641898 24.8198030208425422  7.0425409173775781
 17.6229511404047940 26.9162377041113352  6.8673559145015002
 19.6641559958340544 27.7315818836880119  6.9287479604092130
 20.7519375122321286 29.7809174366893537  7.0766449764849986
  7.9922721096355023  2.9853599383518206  7.3293685126836117
  8.7068694319735602  5.5630144118250930  7.2305545552296042
 10.3128682871868183  7.4340273021322503  7.1318769052458055
 11.2368231502973259  9.7769599081628371  7.1112959851810400
 14.0427800836308450 14.1990314965678674  7.2776428906508572
 15.5187375970374344 16.0755285518244726  7.0965724072986678
 15.6312303178100365 18.2988964468949789  7.1548839736874612
 17.8289458916520580 20.7751863710638958  7.1771564513136186
 19.3477941078928559 22.8627278784798911  7.1250061785382162
 20.5142832887336759 25.2724843610670717  6.9089639432099608
 22.0559936017871046 27.5324848997836291  6.9880951603516035
 23.0992547217206372 30.7523090212400874  6.9755346098293698
 24.6923714202873299 32.3079131564762037  7.0658517706360717
 10.4641521354717302  4.2757398251773404  7.1592632643278078
 12.7076207700743424  6.9035019979862158  7.1580777855964381
 13.3623010699220988  9.0020337077163077  7.0191841897250242
 13.6449255897943527 11.1489151465776235  7.1403181332504628
 15.6249405029247406 12.1683041064374518  7.0767680315937849
 16.7108425875643221 14.1500931721202914  7.2117189684940071
 18.0751050184363038 16.4025371393108408  7.2543619407497220
 19.2802716130435705 18.5397518389976099  7.0623800499354337
 20.2537388172595385 20.8095759787068175  7.0248231731385511
 23.0799597045444003 25.1863163473049596  6.8941144259899776
 24.4684099946035474 28.9584828664723162  7.1620862014533877
 15.4285078144133010  7.5632850879317077  7.1222757875206870
 16.5461877357008085  9.8322477770284653  7.1120980037225587
 18.0041867357844865 11.8274737374863737  7.2416449868688169
 18.9765579737126764 14.1883308326191457  7.0762320479574576
 20.5595238967926086 16.1108162598819611  7.1370311258898402
 21.8295697034715381 18.0785701799467198  7.1050976340009546
 22.4116320265591611 20.1347389658574372  6.9988469575188850
 22.7425138623260530 22.2562540180707238  7.0036263346220196
 24.7432578677443757 23.2766552487726557  6.9650071572570234
 17.6851803100653591  7.7226514249379443  7.0239832886548941
 19.2998279291403101  9.7175972130412092  7.0505324775859339
 20.8545931590484059 12.9919529538574210  7.1289691821607173
 23.2207194273677793 16.3154227876088740  7.2008416843068535
 21.9545376271347195  9.8401701025533068  7.1917020161155332
 23.3111052548537465 11.6397523260837179  7.0936447562471869
 22.8291821383596059 13.8493486383019953  7.0688419801531399
