C  F                                    
1.0
        9.4312219620         0.0000000000         0.0000000000
        4.7156121518         8.1676936500         0.0000000000
       -0.4438772109         0.1112641130        20.5238755358
    C    F
   52   30
Cartesian
     4.748990900         8.123821103         9.937496014
     8.346559472         0.827874054         9.320473831
     9.968897646         2.911981435         9.320461598
     8.654937790         2.379600472         9.937497237
    10.432805288         4.329689600         9.925076275
     1.531384512         0.464918801         9.320478113
     3.324305194         2.241447400        10.052309331
     1.727314396         1.869047440         9.937496014
     3.578685401         3.811570419         9.871702897
    11.823046428         4.720328279         9.283518608
     4.273000044         6.554593302        10.052310554
    12.397842848         6.212705782         9.292020670
     5.853434909         1.529443046         9.283509433
     4.273599798         1.281038086         9.292013330
     6.046979059         3.011660315         9.871695557
     5.043734471         4.124143549         9.292644563
     6.886005306         6.122707067         9.283500258
     5.505558721         5.549215864         9.871680265
     7.242819019         7.522022021         9.925077498
     6.886854269         0.520777701         9.925081168
     7.533934849         3.576423994        10.052292204
     9.268723363         5.447987629         9.844526269
     7.891044818         4.878738882         9.291993757
     9.759372455         6.846736671         9.273563855
     8.793356716         7.971009140         9.844529939
    11.216036373         7.121194856         9.844530550
     5.338480376         8.123829439         7.104358089
     8.556093113         0.464952382         7.721352135
     9.549825459         2.911970672         7.721355805
     8.360162872         1.869073373         7.104326282
     3.200643253         0.520735768         7.116755808
     1.740923597         0.827846621         7.721368650
     2.553555255         3.576441298         6.989524587
     1.432566904         2.379584697         7.104356865
    11.627682237         4.878750518         7.749823034
     5.813912229         1.281060024         7.749812024
     4.234070000         1.529428564         7.758320203
     5.043735573         4.124154312         7.749145316
     4.040493435         3.011666941         7.170115729
     4.581923650         5.549252973         7.170110836
    12.632709540         6.122742686         7.758325708
    12.275894581         7.522053356         7.116746633
     6.763178049         2.241473284         6.989508072
     7.695681014         4.720321398         7.758317145
     6.508805253         3.811577258         7.170117564
     7.120886441         6.212690937         7.749814471
     5.814499876         6.554610206         6.989514189
    10.250002013         5.447993224         7.197310707
     9.085922842         4.329676650         7.116748468
     9.759375326         6.846742291         7.768269451
     8.302700818         7.121176526         7.197302144
    10.725395484         7.971041968         7.197308872
    10.584639416         4.160554357        11.279391180
    12.498252974         7.475084116         5.762425611
     3.956164987         6.457612580        11.382578080
     6.131356590         6.457695862         5.659262566
     4.220923128         5.330366296         5.858653053
     5.866543090         5.330253145        11.183128262
     3.587782521         4.233693810        11.183156398
     2.479068291         3.899365261         5.659284586
     4.410552755         2.808449658         5.858650606
     3.566713648         2.015555397        11.382579303
     3.130099762         0.736766813         5.762433563
     6.957388363         0.736851871        11.279399743
     6.520759340         2.015590572         5.659257673
     5.676855725         2.808479965        11.183141719
     6.499720687         4.233657881         5.858661004
     7.608359632         3.899330430        11.382557283
     8.934095224         4.160553361         5.762429281
     8.936939359         5.734489373        11.153177760
    10.581742722         5.734502093         5.888663498
    11.133806701         6.690637177        11.153187547
    10.311401941         8.115130476         5.888670226
     9.207362723         8.115081701        11.153178983
     7.020424592         7.475092414        11.279387510
     8.384906962         6.690605045         5.888661663
     1.477293773         1.888621911        11.272738775
     1.324508767         2.153282052         5.769092696
     0.175308483         0.162881718        11.272748562
     8.610185197         1.888635656         5.769070065
     8.763015938         2.153330431        11.272748562
     0.480897654         0.162887964         5.769096978
