C  F                                    
   1.00000000000000     
     2.2228403468283351   -1.2835422735693462    0.0001742321594243
     2.2228319214539565    1.2835292833645353    0.0001747447549562
     0.0015985916380826    0.0000076328707739   19.9766193565960997
   C    F 
     4     2
Direct
  0.2227078512004543  2.1904695226735051  0.5359720704837373
 -0.4448245320178517  1.5002109393277709  0.5625880631999544
 -0.1239514828237147  1.8728587526720621  0.6710959607713493
 -0.4686358194127220  1.5415120110512259  0.6422200307588933
  0.2185632198094133  2.2172740643152329  0.4686600560893240
 -0.1398794640214924  1.8659368111192878  0.7382797282903318
 
  0.43152005E-02  0.32656275E-02  0.68848682E-03
  0.30647672E-02  0.37845272E-02  0.82169826E-02
  0.41443836E-02  0.71372663E-03 -0.44455088E-02
  0.48728081E-02 -0.79054632E-02  0.99245973E-02
 -0.39250771E-02  0.90517709E-02 -0.39792786E-02
  0.71264059E-02  0.59441566E-02  0.54976238E-02
 
           1
  0.500000000000000     
  0.10000000E+01  0.00000000E+00  0.00000000E+00  0.00000000E+00
  0.22255711E+00  0.19159091E+00  0.53598929E+00
  0.55478296E+00  0.50129269E+00  0.56279372E+00
  0.87637565E+00  0.87346393E+00  0.67098468E+00
  0.53345191E+00  0.54052018E+00  0.64246843E+00
  0.21635876E+00  0.21859571E+00  0.46856047E+00
  0.85976421E+00  0.86789604E+00  0.73841732E+00
  0.00000000E+00  0.00000000E+00  0.00000000E+00
  0.00000000E+00  0.00000000E+00  0.00000000E+00
  0.00000000E+00  0.00000000E+00  0.00000000E+00
  0.00000000E+00  0.00000000E+00  0.00000000E+00
  0.00000000E+00  0.00000000E+00  0.00000000E+00
  0.00000000E+00  0.00000000E+00  0.00000000E+00
  0.00000000E+00  0.00000000E+00  0.00000000E+00
  0.00000000E+00  0.00000000E+00  0.00000000E+00
  0.00000000E+00  0.00000000E+00  0.00000000E+00
  0.00000000E+00  0.00000000E+00  0.00000000E+00
  0.00000000E+00  0.00000000E+00  0.00000000E+00
  0.00000000E+00  0.00000000E+00  0.00000000E+00
