C  F                                    
   1.00000000000000     
     9.4306657425422831   -0.0008636806959998   -0.1024451154004089
     4.7163295579906848    8.1672294285680245   -0.0284350487753824
    -0.2209061386158664    0.0540207171375396   20.5277173977146248
   C    F 
    52    30
Direct
  0.0323111857004169  0.9880326649986744  0.4841919778442930
  0.8587791254005521  0.0951732380352271  0.4541283565481499
  0.9032145006523931  0.3503379914362224  0.4541277588101035
  0.7981047327834299  0.2847471119215457  0.4841920407456665
  0.8672025689422037  0.5235117803514772  0.4835868621112178
  0.1583796593577816  0.0507353239220508  0.4541285598859846
  0.2416521484172288  0.2677563499738258  0.4897861053632894
  0.0948176820271940  0.2222382847777423  0.4841919959872042
  0.1720322607870574  0.4601119942565849  0.4809863098179191
  0.9890131768462450  0.5717649053081589  0.4523277460948915
  0.0782060054576553  0.7958302381845787  0.4897861800233677
  0.9586230565648911  0.7544763420321094  0.4527419963127430
  0.5513862723341404  0.1810933742457853  0.4523273008708812
  0.3991040089510426  0.1506746252777839  0.4527416509883400
  0.4827153500637195  0.3621761457599754  0.4809859251688200
  0.3067178214316831  0.4987657932844398  0.4527723972193277
  0.3796855926064284  0.7434631786535445  0.4523268611650785
  0.2699670193461148  0.6728581807415036  0.4809851830041790
  0.3335414058294406  0.9143604893716384  0.4835869065885339
  0.7243919918724321  0.0571730329702142  0.4835870752020379
  0.6062794860754502  0.4312023108688376  0.4897852692285249
  0.6751039542501722  0.6604824777188398  0.4796621487666693
  0.5624247920518060  0.5911540197201574  0.4527407016455421
  0.6400021149592593  0.8321153111968563  0.4518427389107645
  0.4702491506147506  0.9693850367570530  0.4796623188161210
  0.7791507429640337  0.8653392112447860  0.4796623469385125
  0.0873776290997638  0.9899141397299670  0.3461508975270992
  0.8990152834532221  0.0518008340825672  0.3762131723803446
  0.8545829113254013  0.3513980372831255  0.3762133310675926
  0.7906651542187835  0.2241219501651645  0.3461493586511918
  0.3261707073703600  0.0590318904755775  0.3467549769087261
  0.1541822492290040  0.0962312664572153  0.3762139553684022
  0.0701649352104161  0.4332373259259666  0.3405557907042669
  0.0248748211227225  0.2866256542082424  0.3461508306763099
  0.9545744544903028  0.5921790848683735  0.3776003768213116
  0.5583748589253856  0.1517009353939396  0.3775998300005474
  0.3756809600848314  0.1821039359129390  0.3780143899627892
  0.3026655235432494  0.4997915888898117  0.3775673421270061
  0.2628739094417428  0.3639701039888224  0.3493548494401501
  0.1649392645146937  0.6746558597883985  0.3493546262650664
  0.9850074089541377  0.7444798604114510  0.3780146660108473
  0.8598285277707786  0.9162282657311220  0.3467545280245444
  0.5982370320964332  0.2697924083685491  0.3405549849078396
  0.5473820382256955  0.5727764041276803  0.3780142463766664
  0.4756230476326628  0.4619059883905253  0.3493549612003072
  0.3950556965436283  0.7554981512007715  0.3775999687993264
  0.2336114818779442  0.7978652143386629  0.3405552939204484
  0.7722003694024319  0.6622402231173653  0.3506799123349481
  0.7170204157167498  0.5253741475869075  0.3467546222614394
  0.6360506608765519  0.8331150761115751  0.3784991614482805
  0.4632994784346164  0.8670940298446475  0.3506794928049028
  0.6681537162325906  0.9711460865255954  0.3506798092226580
  0.8972107314083517  0.5019049990024899  0.5495741174349071
  0.8827255201823871  0.9113766227500750  0.2807669326106741
  0.0540405756378399  0.7830736111549017  0.5546017928266833
  0.2696488738681833  0.7868825886069426  0.2757404454539213
  0.1366190096728556  0.6487272173242777  0.2854555046114383
  0.3250892831514010  0.6451793229709570  0.5448838502150143
  0.1505984019170526  0.5109236485241109  0.5448852127029435
  0.0390067207540413  0.4736569675035340  0.2757415321653877
  0.3111092767287659  0.3399599542359931  0.2854553814598288
  0.2846752957982943  0.2392166237429631  0.5546018267967358
  0.3019110618468259  0.0863802572397454  0.2807673168963118
  0.7221985530098330  0.0827288540175776  0.5495745332420530
  0.5828690501993905  0.2430197127901824  0.2757402130414507
  0.4593515032388220  0.3364296058718502  0.5448845298881672
  0.4453787543476534  0.5144532954831869  0.2854558684285892
  0.5978955066219546  0.4698539541462748  0.5546007639178823
  0.7077200548008757  0.5055667192368125  0.2807671077467850
  0.6258211983916625  0.6946913195923373  0.5434245374092495
  0.7864006734603179  0.6981871132447780  0.2869177094009479
  0.8002244961140342  0.8117558999681664  0.5434250260117053
  0.6120017624444782  0.9896559454617261  0.2869180488140385
  0.5087621403136534  0.9861557188604620  0.5434246092278376
  0.3163887236966741  0.9077158194160304  0.5495739724067249
  0.4949388649455808  0.8152462507055449  0.2869176174260443
  0.0706145659722898  0.2237486117020665  0.5492500228691199
  0.0237657406903665  0.2598048837102341  0.2810917851523014
  0.0382083582230409  0.0124600475727775  0.5492504701831463
  0.8124725643485765  0.2274032789859902  0.2810906791626491
  0.8269208997602511  0.2561578122400682  0.5492504573548952
  0.0561625638585802  0.0161137920709416  0.2810919773135967
 
  0.00000000E+00  0.00000000E+00  0.00000000E+00
  0.00000000E+00  0.00000000E+00  0.00000000E+00
  0.00000000E+00  0.00000000E+00  0.00000000E+00
  0.00000000E+00  0.00000000E+00  0.00000000E+00
  0.00000000E+00  0.00000000E+00  0.00000000E+00
  0.00000000E+00  0.00000000E+00  0.00000000E+00
  0.00000000E+00  0.00000000E+00  0.00000000E+00
  0.00000000E+00  0.00000000E+00  0.00000000E+00
  0.00000000E+00  0.00000000E+00  0.00000000E+00
  0.00000000E+00  0.00000000E+00  0.00000000E+00
  0.00000000E+00  0.00000000E+00  0.00000000E+00
  0.00000000E+00  0.00000000E+00  0.00000000E+00
  0.00000000E+00  0.00000000E+00  0.00000000E+00
  0.00000000E+00  0.00000000E+00  0.00000000E+00
  0.00000000E+00  0.00000000E+00  0.00000000E+00
  0.00000000E+00  0.00000000E+00  0.00000000E+00
  0.00000000E+00  0.00000000E+00  0.00000000E+00
  0.00000000E+00  0.00000000E+00  0.00000000E+00
  0.00000000E+00  0.00000000E+00  0.00000000E+00
  0.00000000E+00  0.00000000E+00  0.00000000E+00
  0.00000000E+00  0.00000000E+00  0.00000000E+00
  0.00000000E+00  0.00000000E+00  0.00000000E+00
  0.00000000E+00  0.00000000E+00  0.00000000E+00
  0.00000000E+00  0.00000000E+00  0.00000000E+00
  0.00000000E+00  0.00000000E+00  0.00000000E+00
  0.00000000E+00  0.00000000E+00  0.00000000E+00
  0.00000000E+00  0.00000000E+00  0.00000000E+00
  0.00000000E+00  0.00000000E+00  0.00000000E+00
  0.00000000E+00  0.00000000E+00  0.00000000E+00
  0.00000000E+00  0.00000000E+00  0.00000000E+00
  0.00000000E+00  0.00000000E+00  0.00000000E+00
  0.00000000E+00  0.00000000E+00  0.00000000E+00
  0.00000000E+00  0.00000000E+00  0.00000000E+00
  0.00000000E+00  0.00000000E+00  0.00000000E+00
  0.00000000E+00  0.00000000E+00  0.00000000E+00
  0.00000000E+00  0.00000000E+00  0.00000000E+00
  0.00000000E+00  0.00000000E+00  0.00000000E+00
  0.00000000E+00  0.00000000E+00  0.00000000E+00
  0.00000000E+00  0.00000000E+00  0.00000000E+00
  0.00000000E+00  0.00000000E+00  0.00000000E+00
  0.00000000E+00  0.00000000E+00  0.00000000E+00
  0.00000000E+00  0.00000000E+00  0.00000000E+00
  0.00000000E+00  0.00000000E+00  0.00000000E+00
  0.00000000E+00  0.00000000E+00  0.00000000E+00
  0.00000000E+00  0.00000000E+00  0.00000000E+00
  0.00000000E+00  0.00000000E+00  0.00000000E+00
  0.00000000E+00  0.00000000E+00  0.00000000E+00
  0.00000000E+00  0.00000000E+00  0.00000000E+00
  0.00000000E+00  0.00000000E+00  0.00000000E+00
  0.00000000E+00  0.00000000E+00  0.00000000E+00
  0.00000000E+00  0.00000000E+00  0.00000000E+00
  0.00000000E+00  0.00000000E+00  0.00000000E+00
  0.00000000E+00  0.00000000E+00  0.00000000E+00
  0.00000000E+00  0.00000000E+00  0.00000000E+00
  0.00000000E+00  0.00000000E+00  0.00000000E+00
  0.00000000E+00  0.00000000E+00  0.00000000E+00
  0.00000000E+00  0.00000000E+00  0.00000000E+00
  0.00000000E+00  0.00000000E+00  0.00000000E+00
  0.00000000E+00  0.00000000E+00  0.00000000E+00
  0.00000000E+00  0.00000000E+00  0.00000000E+00
  0.00000000E+00  0.00000000E+00  0.00000000E+00
  0.00000000E+00  0.00000000E+00  0.00000000E+00
  0.00000000E+00  0.00000000E+00  0.00000000E+00
  0.00000000E+00  0.00000000E+00  0.00000000E+00
  0.00000000E+00  0.00000000E+00  0.00000000E+00
  0.00000000E+00  0.00000000E+00  0.00000000E+00
  0.00000000E+00  0.00000000E+00  0.00000000E+00
  0.00000000E+00  0.00000000E+00  0.00000000E+00
  0.00000000E+00  0.00000000E+00  0.00000000E+00
  0.00000000E+00  0.00000000E+00  0.00000000E+00
  0.00000000E+00  0.00000000E+00  0.00000000E+00
  0.00000000E+00  0.00000000E+00  0.00000000E+00
  0.00000000E+00  0.00000000E+00  0.00000000E+00
  0.00000000E+00  0.00000000E+00  0.00000000E+00
  0.00000000E+00  0.00000000E+00  0.00000000E+00
  0.00000000E+00  0.00000000E+00  0.00000000E+00
  0.00000000E+00  0.00000000E+00  0.00000000E+00
  0.00000000E+00  0.00000000E+00  0.00000000E+00
  0.00000000E+00  0.00000000E+00  0.00000000E+00
  0.00000000E+00  0.00000000E+00  0.00000000E+00
  0.00000000E+00  0.00000000E+00  0.00000000E+00
  0.00000000E+00  0.00000000E+00  0.00000000E+00
