C  F 
 1.0000000000000000
     9.4053493777275339   -0.0008976834287330   -0.1021167833515063
     4.7036368516040907    8.1454681163878124   -0.0283813334471659
    -0.2184001820440296    0.0532916701919064   20.6378704801382789
 C   F  
  52  30
Cartesian
  4.8458595175322605  8.0733218916601022  9.9515935673065936
  8.4251341605374819  0.7994133052663035  9.2761124997938591
 10.0444495346379039  2.8770329843186500  9.2643406651676568
  8.7392823055905726  2.3442005107382697  9.8933428319236540
 10.5130384506333296  4.2892952244626850  9.8675978224875891
  1.6284956455201709  0.4366456042938856  9.3488582955511337
  3.4246782534913809  2.2070505692512912 10.0653924748567505
  1.8313449159529920  1.8365846318312176  9.9669222572129144
  3.6768521831524876  3.7734372859181375  9.8861844276938484
 11.8925170597426479  4.6799817873098295  9.2127273682808166
  4.3720955928723786  6.5087774516280001 10.0671643981462147
 12.4661523367124278  6.1692518774518019  9.2191386616356912
  5.9393381162719576  1.4990073094686704  9.2684058022450770
  4.3629973794852130  1.2509395103924685  9.2932012881341706
  6.1384704011465017  2.9750625884584232  9.8573555988203907
  5.1318775675532491  4.0865828053321005  9.2931766845354566
  6.9687469904064727  6.0799477845082386  9.2701063442374974
  5.5990763238594861  5.5063597573519845  9.8701798962358840
  7.3321487438779034  7.4733093955129943  9.9109242781828488
  6.9762655858309586  0.4909001543099082  9.8954429350531168
  7.6235314597534787  3.5374383540445207 10.0233982224752651
  9.3514048733026200  5.4049557514612792  9.8024836872158279
  7.9717267984146103  4.8384902691660487  9.2642335743881983
  9.8346732865233406  6.8014863659666229  9.2308514667637223
  8.8776111210523077  7.9212371860695452  9.8145982467158692
 11.2935481268667406  7.0734896135428436  9.7860073291961314
  5.4020960911701232  8.0812190130314079  7.1166545747034577
  8.6175533923250640  0.4404672790105523  7.6769067732033012
  9.6075221143365841  2.8815741636733474  7.6728677269910586
  8.4149933733026288  1.8438157979604608  7.0666332219882557
  3.2698226117375708  0.4989458524742024  7.1304307268483083
  1.8210985353751530  0.8044956704197946  7.7515794891823608
  2.6232531824389169  3.5465666365410282  7.0193710107493175
  1.5071401723480871  2.3529799871640282  7.1428571685989057
 11.6807063370333815  4.8425279641484442  7.6838164666758049
  5.8832820018131793  1.2552250719885649  7.7366798730748556
  4.3069898657422208  1.5034064185129412  7.7629312918095490
  5.1151071982975962  4.0908797242472819  7.7522303098145144
  4.1080921014651244  2.9828221355981852  7.1822357451492689
  4.6482312866759816  5.5140778795452201  7.1835034221580845
 12.6840504926993081  6.0836382662388191  7.6848710344380731
 12.3209197662498333  7.4808079185208056  7.0518135074315076
  6.8218215790865138  2.2152264857482455  6.9702187856512792
  7.7599232116080135  4.6846466542906127  7.7344712950194046
  6.5701577853324951  3.7806133366612817  7.1577947662906496
  7.1865791060511528  6.1740961050062522  7.7363521631635157
  5.8755494846990128  6.5172236779532264  6.9927761794971524
 10.3012057925023033  5.4123249697571181  7.1490365157295983
  9.1392960873963709  4.2973951218955273  7.0776277978378319
  9.8183496313947476  6.8057341885362641  7.7281351189677201
  8.3595516212989871  7.0811216998844770  7.1748316737952127
 10.7756104350719308  7.9284905689498659  7.1508656698754516
 10.6792842094201408  4.1168969524677328 11.2200008212971056
 12.5281588419328482  7.4376837933890592  5.6947338683911530
  4.0694379516276671  6.4078543245281949 11.4008925215696379
  6.1786525401929833  6.4236200433029049  5.6582044586136435
  4.2731039438734424  5.2994163101198826  5.8749717616744643
  5.9743952182547160  5.2840652229922345 11.1772135906315988
  3.6999639501611532  4.1916862208789079 11.1988674969778454
  2.5343014557004868  3.8738412603119712  5.6906305502260812
  4.4635847523087842  2.7830651375634319  5.8659027753108797
  3.6821407716663623  1.9771159874592028 11.3923137040734499
  3.1848853153449928  0.7183134958369725  5.7773129670722927
  7.0609127016572089  0.7027631604595556 11.2495358365109990
  6.5643377298329941  1.9925284122332032  5.6415850611450784
  5.7829567470539738  2.7683027948181125 11.1722484306156886
  6.5474526699309195  4.2059762987071432  5.8471244111528256
  7.7126960525493091  3.8569998853843734 11.3540420640475723
  8.9729437579835949  4.1325012175812246  5.7240666474519015
  9.0327933944601941  5.6887007717504261 11.1154449671911895
 10.6201095026468639  5.7033469696835510  5.8374146019405959
 11.2253605029690977  6.6380486257747240 11.0942434996904797
 10.3460530348098541  8.0767369434557530  5.8469604678574063
  9.3069610376358902  8.0621823583971342 11.1188750292034584
  7.1251666842017718  7.4224944668237764 11.2676319508335876
  8.4276578451628534  6.6524712865620002  5.8638378137763496
  1.5969512011247549  1.8521702500726844 11.3051105781462908
  1.3844421000104190  2.1317770654111317  5.8080849492529110
  0.2980466509132547  0.1303345724627770 11.3143724087087101
  8.6494942567970856  1.8662817608044324  5.7284460038900313
  8.8616834292528566  2.1150710127960801 11.2268088951745852
  0.5432586900225291  0.1458339970866598  5.8116782602712940
