C  F 
 1.0000000000000000
    26.9849465494804441   11.1258867827774122    0.0007474633343252
     3.8547574506622504   28.9278728240789889    0.0009191033908182
     0.0003215279450043    0.0006172527469763   19.8487481925689728
 C   F  
 516 256
Cartesian
  0.7075085249848608  6.7593166197273193 10.7882747412879691
 20.7594834516888866  8.3481588699840046 10.8720745771286804
  3.5507158444786002 27.4868654960234942 11.2113733523633829
  4.2051267148430513 25.0910529188995781 11.2182176361775543
  4.6708532083973981 26.4963832774217281 10.6487012950879798
  6.0310456584203518 26.9393233453275975 11.1591491577158060
  6.3427852500732014 28.4560319682802856 10.7028576237494946
  7.7219289547298988 28.7897288211002156 11.2462257738848219
  8.0435373389128291 30.3313559818792697 10.7672824402533180
  9.4863928823155916 30.5654030052991175 11.3213537461174649
  2.9612874527129769 20.7595668465449705 11.1454398781271014
  3.2823148171645600 22.1863120977019719 10.5252462757698346
  4.8636570281958029 22.4885858490136137 10.4405784453393782
  5.3317376412496751 23.9717648542664890 11.0540324950251403
  6.5890406243539150 24.4000026152987139 10.2948458600216295
  7.0854200234394096 25.9670920155372222 10.5730831749427967
  8.3793857288140234 26.1015041880356797 11.3137838633600047
  8.7911793752467613 27.6246242107571369 10.9195501272734941
 10.1593448992563449 28.0096425922177232 11.4054272481498042
 10.5117427310705889 29.4343907044120705 10.8406640354651813
 11.9546332223793197 29.8679411692698800 11.3604248121992430
 12.5013096665433370 31.1955388625507979 10.7273220947011900
 13.8826542604192600 31.5840028373770210 11.2255707495266250
 15.6882573666937795 33.2418409894518163 11.3750050886059952
  2.2444263068690886 17.8479173435669765 10.7134539992192650
  3.6063111591747794 18.2645136141024302 11.2403142188017675
  3.9965966699651467 19.7313638157661622 10.7056542997327053
  5.3920913058255282 19.9614590673529371 11.3767957109153528
  5.7167462356108603 21.5128013471845527 11.3574707701685913
  7.2924021501685781 21.8033352010170560 11.3342356058207390
  7.6459541191407059 23.0550050910009077 10.5154985888656096
  9.0288209947219649 23.5321503483598207 11.1465323798677023
  9.3219904911145282 24.9664468439120917 10.6998983251947433
 10.7439042897913293 25.4247025360129975 11.2460267042973943
 11.0642939224747412 26.9019088707424920 10.8132634647446348
 12.6131726432409383 27.2916141846172167 11.3444398096845269
 13.1317844340947030 28.8044615236414785 11.4159651108539162
 14.4277848187993438 29.0582403794118989 10.5664601590223395
 14.9483540328128068 30.6089997928163591 10.6548619991868598
 16.3167893977911582 30.7520704849182032 11.3086963055049594
 16.7842398594355871 32.2144460526004082 10.8493319883282577
 18.1906847733672024 32.6173180320084910 11.4280943091050151
 18.7094449363931687 33.9606581754178052 10.8536727913144535
 20.1527032388359615 34.4195690859711831 11.2944419313564079
  2.3830425625268687 13.9485191425195598 11.4854374928533289
  2.9018470176119990 15.4388125918265917 11.4944869134053693
  4.1735192845664821 15.7029246534112730 10.6241413707517207
  4.7151347793164531 17.2482464174690016 10.7608775458095138
  6.0099536894020833 17.5010803963838981 11.6081935334499011
  6.5109481008599381 18.8950460984170832 10.9671354235751082
  7.9221926538009599 19.3309602684132855 11.5171580755271936
  8.4301955853393995 20.6390305724888954 10.8654086970080126
  9.8739210648525155 21.1084807993329946 11.2932496122483634
 10.1677093052059035 22.5165198243185785 10.7091502944266548
 11.5669197223842275 23.0105591154211595 11.2160756100437968
 11.8374940099037147 24.4582618003893089 10.6990888269926536
 13.2806533046149742 24.9262987251493264 11.1618285263734158
 13.5541028710462896 26.3598976773233211 10.5481722234975752
 15.2333051778965576 26.5937515069679549 10.3932766020926017
 15.4714611290299189 27.8616931308918581 11.2013952748859715
 16.9954718368258177 28.2374349053032390 11.3464037101680972
 17.2424029377686594 29.6276895624731651 10.7381182733112404
 18.7290360414951707 30.1127864250430761 11.2307197867698854
 19.2065444277677031 31.6287632301213719 10.9384362363731285
 20.7263112492697488 32.0340734791976089 11.3537697907390136
 21.2584835423546323 33.4181715702778348 10.7480013398406751
 22.6537910679358241 33.8802904609893858 11.1924948673177109
 22.9632358518857096 35.3692064764971335 10.7608286430863487
 24.3316609053888762 35.8075344111555580 11.3321236131720458
 26.0555537352215651 37.5417126205205918 11.4065243509402183
  1.2981814495764765  9.7306383197611943 10.6901955677559037
  1.5648760501812922 11.1560401238297562 11.1911016817363898
  2.9390176681769979 11.6178480714243477 10.6918366953565993
  3.5485155063573459 12.8728901403947233 11.2635601010364699
  4.9913741327753289 13.2345784999681140 10.4899239692273198
  5.2989031414169618 14.6411190204305743 11.0816347283758692
  6.6986324257758900 15.1468133318249993 10.6344731671609587
  7.0831860936978970 16.3190436303546917 11.6038809693976432
  8.5945948694197956 16.8552317670420777 11.5686656213391359
  8.9615507252080331 18.3269125681285097 11.0872739164621148
 10.4798499697000782 18.7336175560817324 11.4422671666003346
 10.9920499121789437 20.0951609184897286 10.7799289597912384
 12.3890303244902746 20.5713940586057262 11.2008109782487626
 12.6972983389955019 22.0435257117567254 10.7155085096425999
 14.0817596042103457 22.4998429754049738 11.2619757206324227
 14.3913162050409689 23.9555309726822898 10.7195503795894194
 15.8582661873131006 24.1773969029196998 11.3337908860896999
 16.3853501132715387 25.3641393733294507 10.6146943140774468
 17.7717562298884033 25.7699355791156748 11.1735405958386025
 18.0455602631078200 27.1723381854381429 10.6952962305913228
 19.4548595345583486 27.6509740428226642 11.1668527254110490
 19.7100203054615974 29.0996095750584942 10.6697763284785641
 21.1639189694000542 29.5813400374385900 11.1707647159748902
 21.4911205734862385 30.9896699716780297 10.6200186737759541
 23.1300675337963249 31.3711257998952071 10.3830015168791174
 23.7615227999657996 32.9321492274930847 10.5530344163398642
 25.0454245635892114 33.2670004956221632 11.3400569219761653
 25.4695720119840878 34.8146473164751384 10.8241474132549360
 26.8781409081618747 35.0593860140673286 11.3651772845609464
 27.1830239442357176 36.4794529744419478 10.8785943039466471
 28.6757567148966785 36.8275564812043257 11.3255507945386356
 29.1099596809311407 38.1588594070401044 10.7382688641404016
  2.1023791066801438  7.2219091357237630 11.2194956501734744
  2.4563922760664512  8.6686753276176969 10.7276320998041061
  3.8008291477253899  9.1447551178132134 11.3043905287175175
  4.1475997059571634 10.5620004023323428 10.7464839249676807
  5.6090068039516909 10.8158828655333128 11.3711209650639002
  6.1180193862441881 12.0363211426851304 10.6546483590475507
  7.4673765967148586 12.5038618739378737 11.1947712893517437
  7.7671112734712171 13.8918057816821907 10.6008002494847737
  9.1444067067668815 14.3346527009029803 11.2311782611476332
  9.4529064264767175 15.7892005965619386 10.8350641240380909
 10.9299781878958893 16.2505397444017810 11.2886318527741345
 11.2326131140325387 17.6598106162482118 10.7192698425591377
 12.8562406707946533 18.0299685494132795 10.4560790615662444
 13.4904086102056553 19.5986459974171012 10.5879228168752011
 14.7750104292885176 19.9471629322211541 11.3671121134436852
 15.2048011177848732 21.4769702779061618 10.8274525989035286
 16.6301828085067740 21.6962532630365992 11.3990275982873310
 16.9767540836015272 23.0680252734063060 10.9104145614099384
 18.5335463189551568 23.4068264502458803 11.1963130469350336
 18.9184459906833844 24.7645291431376222 10.6472714140554601
 20.3108353382567586 25.2588099064366105 11.1361572507138025
 20.5690842376511362 26.7017655355623980 10.6272324301246570
 21.9669017967662086 27.1832660131123340 11.1224165306582563
 22.2332355269859896 28.6454143404490154 10.6595450243964365
 23.6911676261402206 29.0027109300484440 11.2843033898011917
 24.1195050072601589 30.5135010154651845 11.1634300498656742
 25.6748958078340870 30.8292369335368122 10.5095211102571859
 26.0995867974376097 32.0654074441888710 11.3729711439109398
 27.6000875990117791 32.5631295496574751 11.3146194847810939
 27.9361296987612917 34.0078238641148829 10.7734807271100301
 29.3991484779380592 34.3926576188522830 11.2156368632085108
 29.7348218696754287 35.8441446317662198 10.7303226468410777
  0.6309465265711386  2.8887831905915484 11.3277283613567832
  0.9375200989188468  4.3048432364211688 10.7291414455180707
  2.5606538643763939  4.6740809404445525 10.4632816547316558
  3.1981670455299578  6.2464986002403071 10.6010419267912130
  4.4830043574024643  6.5886688005888372 11.3883336600205407
  4.9193088141196162  8.1172163226172991 10.8663794006675403
  6.3435687490028370  8.3434088749991346 11.4292639018476283
  6.6897160732856049  9.7165436071463596 10.9328647164643549
  8.2305783471286471 10.0764528492233758 11.2545197140065252
  8.6205282196349362 11.4481181488713322 10.7140276747234306
 10.0007008384340619 11.9270741481648077 11.2381107580313717
 10.2739270186687737 13.3696576410365093 10.7290523338779327
 11.6645263946001041 13.8496909769437924 11.2515435776394508
 11.9671328360315172 15.3012237869313861 10.7676012902136424
 13.4205221885085120 15.6760375436915584 11.3977038086189726
 13.8496591887930958 17.1869815929658465 11.2483675512283821
 15.3956737744900618 17.4885990682255965 10.5895972740669180
 15.8329174573024414 18.7419063382946511 11.4274741702726921
 17.3434127619622487 19.2234556453706773 11.3458165572004894
 17.6827071823110344 20.6814316784639125 10.8157979114874383
 19.1861975923511281 21.0084936534838356 11.2660790067450698
 19.6947200254905397 22.3691226515586017 10.6877430191954303
 21.0292126713849576 22.8516218600531857 11.2816221339272023
 21.4271464055855674 24.2889772422646359 10.6289036008038611
 22.7939686081493811 24.7482161245217647 11.0803020999798676
 23.0808449318427300 26.2392779930248032 10.5668452720183232
 24.4901868067009332 26.5699373720262280 11.0388687858662706
 24.7671564831221893 28.1174977631557184 10.6283932890943653
 26.1999578704018603 28.3482947894467614 11.2162206894814158
 26.7615142088933879 29.6084556485839094 10.5808221696715865
 28.1381068666394931 30.0405151598862794 11.1727376389482984
 28.4866997676033549 31.4400791026023860 10.6688201428218701
 -0.0148372420658713 -0.0049095259243420 10.7282923264741346
  1.3770634926024772  0.4712198080653582 11.2423149800215878
  1.6661133934081436  1.9397453124556840 10.7881346824732827
  3.1255858916663923  2.3084861246353010 11.3993098675063464
  3.5528802928408139  3.8236444104422405 11.2547095827807322
  5.1009308330751688  4.1301509827468905 10.6026964803699570
  5.5371330062395483  5.3803253703837459 11.4491567721427128
  7.0489897974483240  5.8632000362084451 11.3782010908243407
  7.3932384406390987  7.3276788080329078 10.8558914952052135
  8.8892425589550150  7.6558286612720234 11.3282001421591207
  9.4052646000606632  9.0258961421690422 10.7701143473545446
 10.7257125360514358  9.4988412142557390 11.3962982652003983
 11.1278394298570067 10.9449233693954291 10.7640303840339708
 12.4823070477432925 11.3986718983880362 11.2543908743478269
 12.7844721588219610 12.8958497179037987 10.7465184865529189
 14.1614210664424363 13.2375373386107587 11.2884564432223868
 14.4856370748997083 14.7670725759269104 10.7779675612788832
 15.9242842451707745 15.0103167161177975 11.3332262330679789
 16.4805533824476740 16.2620771509395290 10.6669546727298190
 17.8685159679751813 16.7015939832674896 11.2128583423491133
 18.2110683547215757 18.0853595324427729 10.7015312116114991
 19.6775242932359085 18.4874174239364883 11.1875723503619628
 19.9904296386507099 19.8957408492050902 10.6113883294065747
 21.5935849212832984 20.2223978299689051 10.5178272377699287
 22.1156460674259101 21.7300900077266164 11.1284080668803558
 23.3303561473777208 22.1465690304190161 10.3050569486086872
 23.8346331125521438 23.7729522881820579 10.4846273268619967
 25.1611306389945639 23.9251283158296246 11.1497161341795312
 25.6020029807775806 25.3633390749523997 10.6381894538301420
 26.9511082943721973 25.7960227616675226 11.1646576902035903
 27.2334310950090597 27.2351680533876142 10.7284830887770468
 28.6934165261028191 27.6378426007794396 11.3410653240926784
  6.1853600365065775  2.9010177820061442 10.6714953029646686
  7.5672030176867295  3.3336412911357778 11.2318603088461053
  7.9186469232522398  4.7257843253192844 10.7365050954201617
  9.3847837401284657  5.1272135136078036 11.2358001611111398
  9.7003408505546531  6.5418463450901942 10.6754960043062184
 11.3048029063137019  6.8666981603678723 10.6005604066346724
 11.8160952377403650  8.3660794129140772 11.2511404528186016
 13.0417287966671847  8.7971037865110198 10.4546548338055185
 13.5308905866141611 10.4055136812985296 10.6898123577910020
 14.8261082166212237 10.5407026256485352 11.4082965606338806
 15.2293364675373226 12.0646239083985716 10.9890857497875505
 16.5961026103390807 12.4565196574871120 11.4626733104573511
 16.9447044624574588 13.8726179671622027 10.8674157600770478
 18.3860101691771547 14.3233788220303868 11.3628759550942888
 18.9454510721269358 15.6294362490713201 10.7082740875500413
 20.3443654935573619 16.0161403307395460 11.1831947408650461
 20.7098984272587714 17.4893388173004709 10.6946001927739172
 22.1175341659632636 17.7016758961769476 11.3547508243467785
 22.4568556352603856 19.2498807567370811 11.3952908684670096
 24.0276392209684779 19.5784004283933939 11.3329590300698300
 24.3630181845201719 20.8336005136525486 10.5011138971425204
 25.7575487974596271 21.3449412416143076 11.1083862584038719
 26.0244052488515081 22.7654651685624145 10.5898429390576201
 27.5175262244630758 23.2336653679823790 10.5232010798687039
 28.0658950771145612 24.8273501408795063 10.6031282402918272
 10.4123373749449577  4.1285287007309686 10.7332241352712749
 12.1699117736928848  5.8650963866637298 11.4467299566918008
 13.7425964118900037  6.1749187695192127 11.3860950637989902
 14.0844687364788967  7.4609342401690011 10.6024009840052873
 15.4658716645863770  7.9367007232841305 11.2219488069841269
 15.7537989321208389  9.3860029976687311 10.7880809118730028
 17.1711308998350702  9.8493511257546746 11.3294481213168403
 17.4953349265588116 11.3342433163828638 10.8884011743895410
 19.0304292839034446 11.7499607166269389 11.4128247541029459
 19.5602177222659250 13.2732066243011548 11.4335532535097446
 20.8863129464431481 13.5254638416948634 10.5563224078562534
 21.4286312241473880 15.0275007145736588 10.6048923393751036
 22.7971534819965704 15.2295246639230459 11.3048870796711647
 23.2090075267405673 16.6849220163342267 10.8581304510298526
 24.6208444159006064 17.1065878978069108 11.4725073251736891
 25.1451460008909002 18.4276536948405472 10.8607758873355618
 26.5851368681205429 18.9035098169771771 11.3015414947830095
 26.8308323963448672 20.2954023916172268 10.6861012028393230
 16.5944327751289684  6.9248020058524320 10.7556405082849889
 17.9872154346530557  7.4118175419876771 11.2771896356692647
 18.2617741477402262  8.8830857483898420 10.7914967090461555
 19.6852290092022599  9.3592124097224421 11.2890616324999282
 19.9864070507726481 10.8302212495249837 10.6555162279026945
 21.5899288740669704 11.1549613007204442 10.5711509851678773
 21.9140962361855891 12.4411850267792854 11.2618257068304981
 23.4777069840528618 12.7715780265586201 11.3140574744710776
 23.8895494038955079 14.2069641149949550 10.8400136898833921
 25.2473819097302439 14.6136620546030507 11.4790442725001274
 25.6711070738615561 16.1101931704923622 11.0605714347896686
 27.1739098699688562 16.5176989681471049 11.4369618870025125
 22.5698566627266999  9.8891197392155217 10.7308763768921676
 24.0600853964960386 10.2538216286828145 11.1559532605906000
 24.4359742180095303 11.6276146205262503 10.6948180141827702
 25.8612261458699848 12.0518300186902323 11.2893600842236506
 26.1718735762366457 13.5265554882626411 10.9016035804596232
  3.7556547536780203 27.4305033182902207  8.6424020539095103
  2.5993204167791397 20.7185574565460620  8.5892201700677084
  3.7629610546905909 22.9592197170100754  8.2401298393458617
  3.6856074718776979 24.5490679741063964  8.2566110515040130
  5.1277995241506540 25.2522924846674250  8.3058982630286859
  4.9815829183873666 26.6137109735493489  9.0543892577518843
  6.3423653253788457 27.3405546119277929  8.6047874519917329
  6.3977099877926085 28.7454931005034595  9.1395581718398713
  7.6877219938804728 29.5077552209475122  8.5077003748031093
  2.6960514566924041 16.3467383712844097  8.5533818908492876
  2.5336610318570316 17.7798187892912800  9.1601411700459998
  3.8964323677916375 18.4922745401885926  8.6927349027600904
  3.9044173252336218 19.9520130766443025  9.1336664549173552
  5.0592552504513790 20.7816373924882321  8.4735877112648179
  5.0956851786342003 22.3286042441440529  8.8890421922703613
  6.4015330147822773 23.0236048714191881  8.3482653156511333
  6.4248172171053781 24.4685431707404639  8.7852521680202269
  7.7809362953084618 25.2583335193570093  8.4332056067547239
  7.5554203781800018 26.5498048620921701  9.1634664743876666
  8.9618021154567433 27.4285207656032384  9.4233304844147021
  9.0614186232744665 28.7330751332719281  8.6381831800399507
 10.3788691009220759 29.6013055445714244  9.2866683746455649
 10.2816579005829389 31.2345537925023748  9.2203844696303641
  1.2918231672941922  9.6766958151962896  9.1094306123471647
  1.4070834088476065 11.0613257783093886  8.4989197567648276
  2.6956632529291564 11.7645645096510822  9.0896785253538024
  2.5759516999548104 13.2547977804850952  8.4689620102219347
  3.9228170111360279 14.1426328012588485  8.4103021869500516
  3.9607940893717637 15.5786068822574624  9.0714659052686102
  5.2795803794456821 16.3459906196905180  8.6337899718319946
  5.1300848062598385 17.7145101754745831  9.3235708054643425
  6.4642209330926885 18.6206802480435627  9.4152921826848761
  6.3824307489212275 19.9141361194775577  8.5004960773721869
  7.6995260157876686 20.8244629849641498  8.5313526006775788
  7.6807225271076209 22.4538451377606840  9.0026662451401567
  9.0307026964459549 23.1411029225851834  8.5743399217235758
  9.1051760994737130 24.6491830597491699  9.0897773740397287
 10.4275745203927670 25.2961363595020394  8.6626193781038534
 10.5219580362601945 26.7628092654009926  9.2758820455751358
 11.6699577641887604 27.4226195340396330  8.4880661151858412
 11.5660855106367304 29.0232519007709371  8.4330821117671917
 12.9787925183649246 29.7455599478694133  8.5004396261683848
 12.7994137898705311 31.1614435667689236  9.1504757713367244
 14.1232900961608561 31.9122902082831956  8.6536735437482033
  1.2123817841391633  5.1841664686923057  8.5568345243221984
  1.0828204440539020  6.6672987820141074  9.1384360485634009
  2.4143074155358359  7.3333247980324865  8.5820821245246659
  2.5459283847187208  8.7604528894565448  9.1393944304168482
  3.8626227200241505  9.4652869454663424  8.6633570119217786
  3.9958610075691099 10.9155248062615655  9.1204670186351322
  5.1231024461401464 11.8002502851352986  8.5144563982245298
  5.0775750734753951 13.3237016642364487  8.9440115302165832
  6.4656232280486980 14.1338576239305969  8.5059550052360233
  6.5419576229231531 15.5600706406783083  9.1197437094432363
  7.8429688145342427 16.3213875726671915  8.6422197129209568
  7.8468551656353194 17.9060743812608045  8.8090928347764361
  9.0344006495554563 18.4899572952632667  9.5772182953664284
  8.8320458520052973 20.1882191164668896  9.3536278620701019
 10.1465774182360420 20.8247308560012918  8.7216247789169898
 10.2342211274173369 22.3494652096897042  9.1555069877068487
 11.5702671889666657 22.9845431993026033  8.6420847922331312
 11.6880775200775986 24.4686341154017342  9.1399040932184974
 12.9846770838878847 25.1201543317359182  8.5808543140355891
 13.0610429034110727 26.6379177916132868  9.0133304646862058
 14.2179925466928712 27.4870146357617813  8.4271132490157310
 14.2553416314692800 28.9481155186851815  9.0115253513692295
 15.5447010057526356 29.7787123031463778  8.5446181937272012
 15.3417563154350329 31.1317009216774814  9.2107866274016317
 16.7122352275755581 32.0326006732318973  9.2927916265257551
 16.6246564248456927 33.3540080736980684  8.4529110813689421
 17.9623456897037670 34.2408088014150565  8.5252317289022770
 -0.0220492583721652 -0.0107638421512642  9.1810784470446940
  1.2935730018259530  0.6470730406180527  8.6736372200287377
  1.3974926768502742  2.1030541215568705  9.2125248939634865
  2.6189464694968385  2.8319268415228698  8.6562673572890088
  2.5731802309097360  4.4060334152506764  8.9693642873989781
  3.8196375525725235  5.0866935100759658  8.4744825612231267
  3.6793753461480745  6.5188615639879997  9.0377805173970049
  5.0628973324493156  7.3219124931618209  8.5091202663093615
  5.0751976334172566  8.6446258663579130  9.2886410370119847
  6.4284271112422351  9.6635740691603811  9.4391249081805224
  6.3726393183431052 11.3488901528194486  9.2015204082837379
  7.6530367572380733 12.0002991070192611  8.6108968412604092
  7.7516661947898067 13.5116317642216455  9.0629057916673386
  9.0862947567371837 14.1820019472736476  8.6458123343143658
  9.1645211264344351 15.6592032906146290  9.2255031906026570
 10.4422486389352951 16.3020400106637773  8.7294315219123195
 10.4946429167682549 17.7340120883801440  9.3081771586133328
 11.5043170328144218 18.5464450931541371  8.5635597670739187
 11.3679145243756388 20.0173721468774595  9.1696709169874762
 12.6950390098465355 20.6916061909220339  8.6148556021971423
 12.7874941674547973 22.1500139253464141  9.1548527017858650
 14.1350590065562915 22.8323085009354045  8.6780794828330645
 14.2370921441254303 24.3064395541995744  9.1124677391079594
 15.4233546282290561 25.1794854905384575  8.4802630741992662
 15.4375299125933072 26.7574983451699708  8.8986337745443791
 16.7735891207298131 27.6129914746394114  8.5881408192725939
 16.8739641458523657 29.1706393010585714  9.0953270479724413
 18.1449239527470709 29.7755805729807577  8.4746371473617756
 18.1301792153149464 31.3417067489608101  8.6411672325973949
 19.3038931038187762 31.8889602164631754  9.4465452819107849
 19.1055530716336044 33.5698859868049979  9.3142909503570603
 20.4261007477517005 34.2168840242025354  8.7099741286080548
  3.9486926277257419  1.9675070038268421  9.1395184246755026
  5.1391291112065387  2.8116808405792661  8.5748002754487054
  5.0749845082643112  4.3347798694372282  9.0480021529733854
  6.4068574500019411  5.0368970686325119  8.5223811259549205
  6.4969900689976798  6.6159122784535835  8.4517815622176613
  7.5957372651615049  7.3568280456033532  9.3001760542683929
  7.5014522817463503  8.9286927741183089  8.6481833327180500
  8.8501602936279156  9.7338363130854511  8.5110236350359809
  8.8339563892630864 11.2347164407266753  9.1336737717888106
 10.1720225366596324 11.8866924375203897  8.6659766043155226
 10.2829858882773912 13.3503430747725478  9.1820129500000061
 11.6096174466981736 13.9837167831712783  8.6816652704746335
 11.7267292294196555 15.4450995482431441  9.2026811139145739
 12.9385265414159800 16.1708436491058833  8.6527180602398044
 12.8706379886253650 17.7552355854819552  8.9625540428265076
 14.1082115006162194 18.4420451617807757  8.4659167432951090
 13.9675791982954127 19.8715420521429706  9.0454228360328308
 15.3347210043493636 20.6807859312365245  8.5002773750191007
 15.3472457264020079 22.0115376584613074  9.2868433197510019
 16.6997129975720107 23.0251775191535444  9.4193710730020594
 16.6431724018477958 24.7098049471512553  9.1844570009779360
 17.9025425367816808 25.3919419171609206  8.6011989708856458
 18.0118193300989020 26.9194869921327324  9.1165984704894107
 19.3319652816588246 27.5496757641891001  8.5960968928719819
 19.4494312341926268 29.0289207451621891  9.0914118255667518
 20.7268269512865224 29.6701673573383538  8.6044532825597333
 20.7789953064153572 31.1022331614831060  9.1960583538023766
 21.7937151027589309 31.9304226865529728  8.4889466995286060
 21.6452934306785281 33.3883621229011496  9.1369943491882442
 22.9781287466445079 34.0723201656437169  8.6109905167459750
 23.0827099028064531 35.5138628633580637  9.2042163337900433
 24.4489511004699196 36.1980882972829576  8.7622814252757912
  7.7137027447975530  2.9716980172532139  8.6562501612249534
  7.7311315985934863  4.4870094007920880  9.1593709566624195
  8.9874142791134535  5.1833110224626067  8.6618155967300758
  9.0579957644040690  6.6258502465910132  9.2268038429623651
 10.1352280272181581  7.4847216179007123  8.5755299266782465
  9.9993113936361482  8.9355401101888425  9.1367815710285409
 11.3985721199535543  9.6340219434146412  8.6465184586895383
 11.3728121105056612 11.0503556892596571  9.1861535478436984
 12.7459025194883484 11.7214687328429736  8.6851127540256048
 12.8357784947250853 13.1488661126055426  9.1664875868986471
 14.1266453836248420 13.9012438931882460  8.5281708250292017
 14.2484610235690976 15.3053815685355836  9.1421434567351483
 15.4317567768219224 16.1499088407846507  8.5722123911091952
 15.3644073025197603 17.6825139482702731  9.0336420504874706
 16.6881507080266154 18.3843882118322703  8.4967885605361673
 16.7690674366385117 19.9673500291558170  8.4254617424424385
 17.8710880133128995 20.7063121688084451  9.2594373405381845
 17.7551756907521323 22.2841273026852598  8.6070212668292196
 19.0982584539666220 23.0840400866968061  8.4335977279389027
 19.0936720398459805 24.5917746052412660  9.0668820448938590
 20.4169577211353079 25.2409188542235086  8.5625805977149909
 20.5431180034164989 26.7091556114254303  9.0870585422164911
 21.8538341038546911 27.3494178659017066  8.5565190965960127
 21.9979080047453870 28.8118540466912485  9.0859891984291163
 23.2078296777401967 29.5603019471768569  8.5508985054077939
 23.1512391669097894 31.1284017547066618  8.8848108053136325
 24.3946739140837572 31.8163195229069196  8.4041541686411829
 24.2471379048706446 33.2300247899484802  9.0095343559364434
 25.6015129012111942 34.0274331796408305  8.4782101650413502
 25.6447811380230917 35.3284093032210080  9.2881715327600833
 27.0003822900380435 36.2849323915366924  9.3257611921371346
 26.9486793181779980 37.6978983300087052  8.5114271127141219
 28.2968124179971205 38.5362113682888818  8.4619511458405530
 10.2961805300525118  4.4140227171468149  9.1581226586749445
 11.4386502249029220  5.2842155650744695  8.5208701852018631
 11.4943840397655208  6.7822911094134284  9.0460068644758564
 12.7826341523267697  7.4853794601783346  8.4755358999443526
 12.8044745157949276  8.9019566205245422  8.9591102513899425
 14.1783985086225783  9.6791088228445687  8.5491335211591615
 13.9703892960583183 10.9658919201239016  9.2628299089196116
 15.3873167426028772 11.8470515839231840  9.4979239507143607
 15.4877306773989840 13.1269836176197163  8.6815491032899192
 16.8034557939657248 14.0115949078318565  9.3164883667210088
 16.7147307144675743 15.6500910615688635  9.2230522807345281
 17.9943688961431079 16.3090109009330320  8.6426979535008304
 18.0156320126788216 17.8314728513975780  9.1294685350974980
 19.2707836809971518 18.5187266112264268  8.6198066813342482
 19.3359386281857866 19.9676066639846717  9.1709423330432340
 20.4020683116792156 20.8138856635050757  8.4941056571246278
 20.2636169819084344 22.2775410056402059  9.0376809441192822
 21.6491454372138676 22.9696802626576577  8.5154387875201003
 21.6322075390201469 24.3968792973054498  9.0416780073226555
 22.9817158527493355 25.0796309453180157  8.4919920600330272
 23.0852292007779276 26.5079121316748179  9.0040673499562054
 24.3474682814837387 27.3094825196082809  8.3853315885632878
 24.5160295190661941 28.6927352980301080  9.0259445684190993
 25.7185089083451146 29.5267318120270588  8.4719573002434458
 25.6526573842928620 31.0461315327627041  8.9561127491077919
 26.9914539559075699 31.7385570844867821  8.4338654370880342
 27.0511150163520284 33.3181892948200797  8.3613813543201694
 28.1757855141232056 34.0127892515452146  9.2196727751585232
 28.2144235832082479 35.5233227883185165  8.7615644554817358
 29.5574640930303438 36.2117039634500344  9.2142587485228038
 29.4267511660442622 37.8441705386364120  9.2143997019202128
 14.0941142011404690  6.9032037064974014  9.0625050042599753
 15.4506837607781495  7.5949441837532872  8.6385801749164148
 15.5323910804950511  9.0809222166602748  9.1795604297751829
 16.8651396000436904  9.7238941870026920  8.7459029789556819
 16.9585558595980892 11.1801295869647301  9.3506366446057303
 18.1075044922170001 11.8260520999613163  8.5538450443421272
 17.9772071882543933 13.4189671104468928  8.4717325513531989
 19.3836980109966035 14.1414242900796747  8.4966243870596010
 19.2279019320819629 15.5687165911360079  9.1370883053751513
 20.5503143326036017 16.3109626414148465  8.6263972679249044
 20.5872349699124833 17.7462433917071074  9.1206014177576158
 21.7284652620920902 18.5907584279980647  8.4597415164979513
 21.7696413033103049 20.1064199351519584  8.9594138016074805
 23.0433746069858998 20.7946770333371305  8.3600220065703112
 23.0693329188127692 22.2253784104576617  8.8086282134871130
 24.4024311474428330 22.9896886902883573  8.3326384491624097
 24.2146406582727991 24.3102085659166427  9.0118702312008363
 25.6371938283700338 25.1605209833744787  9.1019947003064523
 25.7404227070943072 26.5715398653915429  8.4440845994715659
 27.0776597313306233 27.3934158032222577  9.1752268759101447
 27.0060506646954046 29.0165789826703389  9.1230779713894119
 28.3082458697243027 29.6574027448398532  8.6033609894318950
 28.3132685209943631 31.1836436740948528  9.0933316525743475
 29.6504969399152039 33.3349939384881466  9.0825245554378160
 16.6642478335003332  6.7948508822709304  9.1943943307211704
 18.0153339193758946  7.4346898548753604  8.7015720513896415
 18.1461636772886763  8.8989069210771667  9.2245813580215614
 19.4749906485540585  9.5434711558174214  8.6996300179602581
 19.5097509330659129 11.0486389517371304  9.1007807298885766
 20.6622471355934358 11.8434150650387533  8.4782666176476873
 20.6870301194014239 13.3454124907781235  8.9802296051286259
 21.9131539838774749 14.1766312010070408  8.3404635745255913
 21.8012891603207919 15.5139501651096818  9.1587031496100657
 23.1430082839327831 16.4426942796651012  9.3021350971707282
 23.0719630473957373 17.7308974522638003  8.4166792146690153
 24.3938019751805122 18.6227482734607825  8.4866560451429560
 24.3619596306565889 20.2183128606942262  8.9422666444338201
 25.7060706286302398 20.8879787997755386  8.4772786131901015
 25.7465428254563484 22.3675377315974764  8.9552820939535440
 27.1859598852867563 23.0297930177939421  8.9669543552161137
 26.9937338047271496 24.4426425691459350  8.4918593457495586
 28.2801803312522075 25.1504027936375785  9.0431014538832901
 28.3009018600815665 26.6417504140276691  8.5193123273229734
 20.7294602746896075  8.7168630643108820  9.3309396922692684
 22.0805054522743198  9.5810631459601989  9.2099211643958654
 21.8911703797021566 11.1826633278646170  9.0352791173284164
 23.1799884696386798 11.8524519256951173  8.4617260832076298
 23.3270402360050291 13.4512249425139938  8.3718888616418248
 24.3471387587895123 14.1544791745456049  9.3240307905260096
 24.4766689471810714 15.6436726341474586  8.8710526588784493
 25.7083940185513029 16.2946968315057887  9.5395217283795439
 25.5273862969785483 17.9695038626984207  9.3148782286133418
 26.8457528712442048 18.5885746185594840  8.6739034563399322
 26.8815799716017523 20.0976038201128553  9.1026446896363460
 24.4295562174789822 11.2665905220545852  9.0936607116192860
 25.7385357472486866 11.9575404530702034  8.6974702828732458
 25.8098404353088107 13.4260999583340546  9.3574575741446040
 27.0621465751449293 14.0823467042676977  8.7584912395749992
 27.1715282070150046 15.5143792902421112  9.3015714964784539
  3.5904913241126786 27.4905838406057015 12.5869876554255473
  4.1020621817511618 25.2407576928245732 12.5803745671101037
  6.0547898841126280 26.9034242894903741 12.5384942673406492
  7.7099896738306981 28.7907656537862238 12.6274426018767034
  9.3774566135170581 30.6736488062823405 12.6905105290237277
  3.0161831211843282 20.8024725211371297 12.5193391963161798
  5.8705664560269559 23.9133661855473321 12.3369838591931540
  8.2911403502340573 25.9398118083733245 12.6702732031203045
 10.2111723843684867 28.0494907448212700 12.7807990172842008
 11.7021530219240706 30.0791350510888762 12.6981952570161845
 13.8398495566498436 31.5145743845887445 12.6020050779250212
 15.6274493394721414 32.9039852595920053 12.7093491843506357
  3.4840557180369327 18.2702593899086132 12.6118242883328957
  5.2716788805939094 19.7394212331283185 12.7274432028222524
  5.2655677314653238 21.8713843832195742 12.6159028607038639
  7.5464337219918018 21.8603976511658757 12.6804193536770740
  9.0133529651266855 23.5333920834470476 12.5236776066654922
 10.6967321095203349 25.3453061795657177 12.6206809064076921
 12.4879578071875681 27.0224297452810838 12.6828985492389190
 13.5893762647971243 29.0094488738520191 12.7056260247735828
 16.2735004890420001 30.5823120947978353 12.6755352995483328
 18.1226696329601040 32.6270844417137837 12.8033414622019865
 20.2451217674195512 34.4111987690300225 12.6691722704159861
  2.0045934335973934 13.7451185173985468 12.7934333940797504
  3.3340953102010062 15.6383276137073430 12.7928341920612159
  5.7450532033123878 17.5585384083602740 12.9521476777940663
  7.8497073919235714 19.4059480829770692 12.8909199577621827
  9.9588088702656083 21.1452535950211775 12.6687384192149928
 11.5685462988669787 23.0219107954821993 12.5932577217292909
 13.2818081083865316 24.9390445491600516 12.5389817540813340
 15.1134275114485206 27.4551840316585185 12.4709042904150884
 17.2240226349350642 28.2213499135931123 12.6954779390405044
 18.7282104132035876 30.0716323747382113 12.6116317901646671
 20.9015518725403808 32.0270498800565093 12.7117362579740245
 22.6733516396923704 33.8479194147357916 12.5697028516089215
 24.2951419295086879 35.8386673939115568 12.7076688043922896
 26.0798071188373335 37.5609774740358873 12.7784245215227354
  1.4753092366037475 11.2038254866405964 12.5664202588182672
  3.9260192696345162 12.5647768430259674 12.5603954708989534
  5.2767916660217500 14.4767582404451272 12.4414908672354532
  7.0579286686253129 15.7558286371744973 12.8572339591417357
  8.9035140044000745 16.9488191052222632 12.9103487719711048
 10.7016817745973221 18.7730124252253034 12.7933946497863520
 12.4115957697732089 20.5912987140776522 12.5776969522347688
 14.0345374329397856 22.5812287841541632 12.6362911669673643
 15.7711222369406503 24.3221193868384020 12.6924068451874792
 17.7708541837832392 25.7428218068253933 12.5528595357086612
 19.5146232285033783 27.6286985984270785 12.5434787685443681
 21.1704423568415265 29.5836401584749282 12.5506339681969070
 24.8878290345703377 33.4821198069594246 12.6841578431586921
 26.9224713134209885 34.9701187155186304 12.7385119069343116
 28.6568497655150871 36.8309265744112651 12.7014639008571972
  2.1216748948628941  7.2312923767104493 12.5966528705024370
  3.7108037274148176  9.2525868881653874 12.6798806960790262
  5.5796705817424384 10.8843335802674144 12.7388626495594952
  7.4354991892574205 12.5290864252195639 12.5701840895843464
  9.0931486106945414 14.2742488378842971 12.6094436747206728
 11.0327160187329234 16.2592227600434249 12.6639200053788095
 14.6142320550059477 20.1908972680276371 12.7067391461578563
 16.6590142432359052 21.6312222229654800 12.7740369498104407
 18.5786807152901652 23.4117199396394007 12.5766530657517848
 20.3166095401054676 25.2988188251568822 12.5133285421606502
 21.9585125140780058 27.1264923575903758 12.4982111685748212
 23.5978905395579481 28.7806844061774605 12.6306589143189765
 23.9562490465023146 31.0014462261963857 12.4443552341834014
 26.0612379516824575 31.5403916761388921 12.6529965056386260
 27.8967990974858502 32.6887953466010615 12.6542885909722500
 29.5838182908555325 34.4211044579848959 12.5776420001638805
  0.6712220105522578  2.9255251865366070 12.7065688816169029
  4.3176415630246296  6.8281113319908844 12.7310769826430601
  6.3713912961998451  8.2798628129077549 12.8051399204915946
  8.2454158716333321 10.0877450340385373 12.6359912535142698
  9.9734136903395250 11.9672617223631335 12.6155869346049112
 11.6169612044270618 13.8141310052607622 12.6289997238281870
 13.3264216971449763 15.4784048886370122 12.7474717478044308
 13.6942649682185102 17.6959122594100862 12.5215392722246239
 15.8002636091116404 18.2522083000924482 12.7206894203267833
 17.6718279408772112 19.3441358887199826 12.6783539711847855
 19.3639143804071594 21.0560051773831240 12.6314140589717212
 20.9377647965845597 23.0492542543926469 12.6326972273584737
 22.8405967973564437 24.7368302862988863 12.4588342432928574
 24.5111061183702184 26.5426059148929561 12.4189561345786963
 26.0713818827491082 28.4596234045185383 12.5817978430571547
 28.0779493572101693 30.1095939124775427 12.5474046293941015
  1.3580311066230246  0.4204529271703237 12.6197928425894688
  3.0288226720184745  2.1065661145602501 12.7494228930058533
  3.3929214361497957  4.3270652951536812 12.5299176007072735
  5.4986069690053112  4.8837895204619537 12.7395865556945367
  7.3712612750907969  5.9753643095726110 12.7129921236399337
  9.0496676488338164  7.6956673750134206 12.6962057110103910
 10.6096398239269440  9.6922530045114481 12.7457181671011845
 12.5010912583160767 11.3979174169370410 12.6339782827803884
 14.1454345826727650 13.2601362475195845 12.6694362517666494
 15.8114578069791722 15.1419496720716698 12.7001772080402002
 17.8499991730992527 16.7871213824472747 12.5890191236780158
 19.7606081280964467 18.4893778286007446 12.5637349527632889
 22.6605979838305309 21.6352950872295047 12.3934014363124270
 25.1272133187931317 23.8395954331416426 12.5211852088551066
 26.8782793349110172 25.7745634126580612 12.5394054955170340
 28.3776133186061017 27.8388134272891499 12.6649520369011999
  7.5387280449826566  3.3987536766965305 12.6090883037515269
  9.4633704143702211  5.1143704354920025 12.6123525449333389
 12.3348099023724114  8.2499420331264268 12.5243428240436891
 14.7469167853107486 10.3877669387536429 12.7662357305980603
 16.6519796243372475 12.5193635048162832 12.8368075616016650
 18.1262375941365335 14.5575648965220381 12.6976112771318803
 20.3079225559790402 15.9536726440194361 12.5589242982063087
 22.0424561217770147 17.3874791233658499 12.6946872756891302
 22.0387139846337377 19.5584775722137003 12.6772552726471268
 24.3170111137497607 19.6591739222449853 12.6729733548435792
 25.7430937856292239 21.3905019482692360 12.4888029405886911
 11.7604566222134164  6.1464112500800692 12.7375605942857089
 14.0334179919833879  6.1944219850799529 12.7259040951027771
 15.4548601619828521  7.9221393721753124 12.5993594348447253
 17.1287399873855044  9.7699052710811944 12.7048901370118887
 18.9274193165749054 11.5004542155067853 12.7574306044182144
 19.9994981207543461 13.5097599632038499 12.7172774536686912
 22.7146914440795022 15.0470122057036644 12.6681949748932219
 24.5091037118599502 17.1703225902363279 12.8424840116337116
 26.6819295604623790 18.9615049020554380 12.6749314655336942
 17.9848826070612056  7.3956322314487402 12.6548189448349859
 19.6678024190599778  9.3652875184342399 12.6658436037491242
 21.6248567956213336 12.1308987417699257 12.5787139536921302
 23.7440609553714594 12.7449085831807380 12.6622797256269219
 25.2571821700535821 14.6282443484327196 12.8545253741265988
 27.3573669488964235 16.5501607752348825 12.7965912015840324
 24.0342144924650931 10.2297617655499113 12.5431368670269254
 25.8935226501592197 11.9413900629297434 12.6617337707540809
  3.7983825104476190 27.4892835126377513  7.2661622740691758
  2.5345122417238621 20.6474772078132851  7.2152748512559208
  3.6292114302514005 22.7419886797815174  6.8927285639372551
  3.2664657180840764 24.9482179767963466  7.0071325050566706
  5.4197714018746304 25.4119576451107640  6.9667394511780865
  6.4206983979000976 27.4200300972989339  7.2304275002713281
  7.4753208970968252 29.5990436044292906  7.1602683985882489
  2.9763745159657922 16.5231545226882162  7.2197910876747668
  3.9828707261692968 18.5156557221181224  7.3200020235493461
  4.8327174171399356 20.8636297253229195  7.1209334823889483
  6.4099561707074644 22.9270554100273785  6.9738553337774789
  7.9655261136736639 25.3943019548096593  7.0826626388377028
  9.2933063564950817 28.2702521542794081  7.3590117850858441
  1.4414233374174774 10.9070815261863459  7.1276138514581708
  2.3311638944363531 13.0390525508658541  7.1298686222319141
  4.1175598754877694 14.3560739423531345  7.0675145694223165
  5.4480220086962641 16.4780957833640258  7.2766183415039505
  6.3237010969191845 19.3411662161302118  7.2416044878314993
  7.9208907392729744 20.9676440419874694  7.1858091014013228
  9.1132734878655484 23.1767483870957882  7.1985960269530986
 10.4512938002159554 25.2963962104640956  7.2857418978387880
 11.7153395386928842 27.1399076790240983  7.1473702926705656
 11.1836481472270997 29.3491905787038547  7.1449256191400066
 13.2800118005108096 29.8994204883106285  7.1647888827242801
 14.1718113542809512 31.9795377511275305  7.2772112685858055
  1.0460499221543402  5.2136421489626983  7.1964226739850208
  2.3267275044011111  7.3696508590336318  7.2066048678927794
  3.8692450985297406  9.4610903023288042  7.2821877094910050
  5.1174367365970950 11.6676756426883745  7.1441890976913180
  6.4957714915426559 14.1223382461012914  7.1339860555337120
  7.9027081111144852 16.1402975548715411  7.2802193397454538
  8.1958077516129713 18.3315752290147529  7.5292775928953457
 10.1360367382355037 20.8085460630221029  7.3445741850123705
 11.5729306249720203 22.9740844252203082  7.2649350693772785
 12.9951398811961081 25.0274948296902835  7.2064446275838003
 14.1746284362688524 27.5556702639937932  7.0526759306304738
 15.6814431272293398 29.8760021446719826  7.1772187777002374
 16.5375819695916526 32.8696800413703656  7.1595822008248176
 18.1890457033063306 34.4340092020252939  7.1870509587163935
  1.2461428420248752  0.6804352957171774  7.2971002694439990
  2.6001429748220484  2.8178353772647347  7.2748288294114900
  3.8868706966640922  5.0749003501077432  7.0987796930824132
  4.7893698881038453  7.4190523377423769  7.1666963773493224
  7.6294852536183573 11.9629792943442013  7.2315491120141644
  9.1653515252024178 14.1877044499410019  7.2706097290895730
 10.4483698062633152 16.3357701227935479  7.3495946975892661
 11.3277216767026729 18.5930372988965402  7.2069222016866963
 12.6002681439682789 20.7098610099899645  7.2406912773848555
 14.1346214309567699 22.8157951955508480  7.3009502960517461
 15.4448807950015201 25.0117111028618062  7.1218478847079449
 16.7859230857779451 27.6411544798945776  7.2073344410932343
 18.1914113493743201 29.5791977520158227  7.1210098330680829
 18.4318677853638775 31.8048089652235824  7.3755626278384394
 20.4129767576428343 34.2380816527632632  7.3332059580727975
  5.1334819399018770  2.6523351590535360  7.2062273101396048
  6.3733210968477589  4.6994305787410982  7.1869522341863146
  6.9719253499386555  6.7799571467286510  7.1628809542539766
  6.9780728409430486  8.9530809161382763  7.3711329818481763
  9.0161803809452294  9.8903728533981479  7.1617536264281147
 10.2072702452191582 11.9314157884495167  7.2882046906558662
 11.5806594899300581 13.9904890321706716  7.3044871143808638
 12.9362207542525418 16.1454655915004466  7.2721222692635035
 14.1671632173126039 18.4384397809538498  7.0903181962515571
 15.0491275266499098 20.7757483585424261  7.1626469312380685
 17.8608410450051522 25.4011549175085669  7.2222696162608679
 19.3301595606287258 27.5207595157672777  7.2186487557440557
 20.7260360726542920 29.7134476524964164  7.2251087808227652
 21.6255599562940333 32.0077135444762888  7.1319970560870072
 22.8784208023217488 34.1362985789717470  7.2384962680977267
 24.4121692645336452 36.2439462917465391  7.3915877146790754
  7.7396639892990100  2.9021940069721661  7.2792058242105151
  8.9114195895167914  5.1971645482455449  7.2850230131529248
  9.9905967496619326  7.5684743971039010  7.2077502166758354
 11.3815170222143216  9.6444560574239819  7.2651694341987243
 12.7640777602144269 11.6967055674674398  7.3055166816828558
 13.9204466390574790 13.9573485283059817  7.1765498793813380
 15.4257642610633940 15.9804585010186191  7.2053493311267207
 16.6468645947762184 18.0456076243787429  7.1623405045736073
 17.2319569574318621 20.1313774174402589  7.1312767997950948
 17.1963031772885095 22.3079157233919467  7.3449359647685881
 19.2330641530351976 23.2365353746995815  7.0802543207905710
 20.4132672207274553 25.2857796785974713  7.1852613753578067
 21.7621758092693334 27.3692990265858107  7.1822381972827287
 23.1946430404949844 29.5745240111999301  7.1689985253285382
 24.4692822107459342 31.8451838047031224  7.0286915979576561
 25.3168657047914678 34.1993171535894049  7.1470271510723045
 26.5383863006894778 37.5065785567311423  7.2162474243476202
 28.5471988686374658 38.6207088759283010  7.1273058065475254
 11.1589206641061764  5.4801923436533091  7.1861091826547456
 12.7511998801500503  7.4254153413751709  7.1002242437504126
 14.3134912481516601  9.7941957365400629  7.1916422555990414
 15.7076803344200915 12.6070865579405567  7.4183912189486154
 17.9934686664165255 16.2308625964451423  7.2671646848424380
 19.1876243600846550 18.5269324465033556  7.2439696621248570
 20.2465121100781005 20.8741064611006273  7.1265274811722144
 21.6050007927597214 22.9695672460838161  7.1344932679623785
 22.9589320462474369 25.0689274220722211  7.1137594787566902
 24.0566328341651818 27.4093954296615117  7.0525261246094084
 25.7069810433557393 29.3726277344986073  7.1024988836186465
 26.9910592683770290 31.3797308537242969  7.1040736640905564
 27.4546519830794686 33.5134547699425767  7.0602394987429280
 28.0714650834373494 35.6414053275725848  7.4007915878284845
 15.5264911974878057  7.6580620323327677  7.2646336060678909
 16.8707013452106018  9.7274774362211716  7.3692083131483814
 18.1698082674926304 11.5264700387778980  7.2177475230359995
 17.5519015512837626 13.7180263380580136  7.1866099673908108
 19.6038455616300809 14.2926898931563304  7.1506135469277581
 20.5437031798581486 16.3956740564755776  7.2523290102736917
 21.4544811994772679 18.7526385148102150  7.1199417643710579
 22.9993329139988170 20.6999889702125337  6.9856272226137923
 24.4926611454353278 23.0562870380793008  6.9648267990759480
 25.9895233161149690 26.4560993353601006  7.1129837273166556
 28.3534827297003886 29.5470246073570806  7.2283396997666278
 18.0174246002002683  7.4595343540958172  7.3244255937993854
 19.5288631917110642  9.4531729102909825  7.3267236245298273
 20.6215306897855584 11.8655950126222738  7.1051744784680269
 21.8127086245676551 14.3947697449448757  6.9898098892721361
 23.0271651220676183 17.2127502446551759  7.1372229750979672
 24.6466174332185659 18.7580520562613486  7.1417194276812053
 25.8194219611070679 20.9099909097744252  7.0984286069437994
 26.8817331516823472 24.3755483296419229  7.1204557524671195
 28.1618695920032351 26.4736566324594307  7.1643641906355127
 23.1075551260225502 11.4677065573377543  7.1294016274768843
 23.8839254307064870 13.5966631890107745  7.1225790423113500
 24.7249356862809258 15.7317690481588546  7.5194326947074330
 26.8479293992085744 18.5589460875795531  7.2967026026882786
 25.7837340278630620 12.0323277288042600  7.3217817709242965
 27.0180991614707722 14.0989769132270517  7.3831151625683527
