C  F 
 1.0000000000000000
    21.8962179284123799   11.1588680800750115    0.0014318979712813
     1.2945098932107122   24.5367574620219422    0.0009818975931563
     0.0009658601615755    0.0007628961478729   19.7575149606534097
 C   F  
 364 182
Cartesian
  0.9569514370374116 18.6478300656402602 11.2198687258509437
  1.0505642741963963 20.1086589724818303 10.6795068434631037
  0.6642683996009608 15.6501228996888155 10.8436598457275704
  3.9694258553903654  2.0128459823209823 10.6564969987886649
  5.2955337531185505  2.6681485437305299 11.1596459058546227
  8.0514248666488246  3.8560094486102323 10.6663854473102404
  1.2114870416309411 23.0621665170502084 11.1691686688376812
  2.3790435415326332 20.7620291883084249 11.1664571591711077
  2.4553921187482866 22.2473659525890177 10.6655325544846757
  3.7679560330358135 22.9112986593257304 11.1774502723075404
  3.8544755289097608 24.3992168569755066 10.6730505513543488
  5.1642921012755227 25.0706659962149701 11.1913142616235746
  1.9364154842287258 16.3196998601452208 11.4045624087271786
  2.1833031906183935 17.7952564237943278 10.7271355545227607
  3.5327106873845264 18.4201351838660798 11.1119608103207259
  3.6109662849853126 19.9350950171199592 10.6365100190459980
  4.9204784788527460 20.5777767646855594 11.1422711896004358
  5.0067142570955916 22.0900237871114662 10.6765512635999862
  6.3014866237888976 22.7431093021015300 11.2276040694194954
  6.4077759438568078 24.2395393703464208 10.7298277829796493
  7.7037467536457180 24.8856212949461266 11.2909574838937328
  7.8312383158263321 26.3546607615288728 10.6779608121313778
  9.2027410631986406 26.8423903377311461 11.1515297722793587
 10.7290094449027222 28.7696449280533422 11.3125829266864972
  1.1212913476149067 11.7104409336864723 11.3498478498645952
  1.5042172951857606 13.2639816863632998 11.5003682448278379
  2.7262335574710184 13.7500034968006943 10.6439243596369586
  3.1130420468368043 15.2958806349893859 11.2757117515242484
  4.2771461367707211 15.9031206866445647 10.4742707673612685
  4.6861620564232265 17.5899360222526155 10.4431651527312184
  6.0119657501402068 18.1824464026286847 10.9785516587161300
  6.1386730495453685 19.7485478108149231 10.6002728917327591
  7.4288343483954833 20.3763249976270053 11.1828873792687862
  7.5439010429777804 21.9066041734972252 10.7653734029838670
  8.8150931757606621 22.5080427770697469 11.4051299810245617
  8.9446875828233079 23.9947002384445902 10.9216164448592039
 10.3071425606014859 24.4186060914316769 11.4940093008854660
 10.4544526737052621 25.7852447642304980 10.8321993933274161
 11.7808578202108389 26.4039065318294845 11.3196798733909816
 11.8891566769944816 27.8534637983520525 10.7529978632036709
 13.3062012937299006 28.4130172825580516 11.3632003690122172
 13.6934097826796943 29.7524086358442510 10.7607669972636941
 15.0669036022976126 30.4015399868989782 11.2349926514776968
  0.5544746873051533  7.3916973714838425 11.1797608086760469
  0.6358833998678838  8.8719086106421408 10.6853023346386902
  2.0943291452248785  9.4941529005722156 11.0004494885095685
  2.1285679382110279 10.9528836822009676 10.4778039132148546
  3.7639928573433998 11.4258699676872659 10.3232929993475366
  3.9683819049141551 12.8770232424314646 10.9447051082645164
  5.2954852572459856 13.5480645863806384 10.4063415426599644
  5.5094549036772325 15.0937901200375837 10.8984212464782679
  6.7738268661497107 15.7313620132087237 10.2736248740557112
  7.1986661710631523 17.4242187403178654 10.3426531115158848
  8.4783199058967700 17.9880112520776159 10.9951445042053368
  8.6657836188946202 19.5620121832510137 10.6756942205746839
  9.9394336004843584 20.1305156823678217 11.3436529001425406
 10.0770515454266398 21.6480749542978579 10.9760933487190648
 11.4524528180402516 22.0136930446798011 11.5805910934680281
 11.5836595506227642 23.4229202015571438 11.0504376168510987
 12.9076385258038666 24.0505024230017952 11.4888752258072948
 13.0081919514406810 25.4812917721131740 10.9130107120520705
 14.3660323910371108 26.1040593352860277 11.4340716128962789
 14.4867060840008115 27.5442867046373401 10.9395939839996270
 15.9679958054235929 28.1599866218711306 11.4355923848741785
 16.3095891203604353 29.5234844940161310 10.8288504020718328
 17.6802049530562293 30.1586898834246000 11.2584490843820220
 17.7869037167979371 31.5901626299246985 10.6692387164698914
 19.1168053405914122 32.2527320726912947 11.1673078154207257
  0.1838404804949906  2.9620208202277101 11.1683392097414398
  0.2776960347326095  4.4442614138024235 10.6656998955267124
  1.6379156220259798  5.1260863551702842 11.1207757297452332
  1.7402176052533573  6.5948350869524015 10.5814023955651351
  3.1649987846983967  7.2635216794594282 10.9474013360148135
  3.2177898011870032  8.6770194697849803 10.3262532385372658
  4.8967929210096681  9.1530810414209274 10.2495448218521705
  4.9875490722591707 10.5880970169036441 10.8236285952341653
  6.3837753694900696 11.2410480085892992 10.3453414786650342
  6.5176442072436824 12.7252974794808136 10.8711365168655476
  7.8398222698591162 13.3992373492545518 10.3463620468948037
  7.9810691036129082 14.9344785652129151 10.8238742877396330
  9.3061409002631006 15.5757384042777520 10.2976280755854503
  9.7128594175013507 17.2271968761277918 10.4480685719477240
 10.8918810029495958 17.7224528621206900 11.2947385409738317
 11.1934542179683092 19.2756649831474647 10.8516409612481546
 12.5548680286026819 19.6061772474680360 11.4447251431494283
 12.7116846841109172 21.0677976762158856 11.0353546975084278
 14.0286114828364781 21.6934820993766095 11.4995624980093272
 14.1308180585256018 23.1634519493255056 10.9843766376671539
 15.4638040492664359 23.8104715937694493 11.4660350094978334
 15.5832118319136068 25.2739687643905100 10.9360783713018730
 16.9663999553092033 25.9093526421310152 11.4189492824598702
 17.1103230213121513 27.3251791258475727 10.8734087410628888
 18.6773967705431900 27.9053504277882993 11.2607248383789500
 18.9169491875411282 29.3053718717942253 10.7325860141842213
 20.2657252978945372 29.9658024335648356 11.2278304425316460
 20.3701535903568036 31.4205498568281101 10.6895481421876024
 21.7015041647988340 32.0875542773768103 11.1841564359767389
 21.7836661579491171 33.5553835723095446 10.6631630225425873
  0.0002438291072432  0.0041523054602416 10.6607398937657116
  1.3221598698296406  0.6773768570232424 11.1686683883838249
  1.4127385378074484  2.1590481799648473 10.6553261222406466
  2.7442458302639388  2.8408515211058289 11.1443964649721412
  2.8459772727845274  4.3156507830254975 10.6025123598540745
  4.2113666823192926  5.0013135030505822 11.0527824182007244
  4.3380314131880402  6.4164402424117215 10.3890124197142697
  6.0027407850031631  6.9000022388904432 10.4007026730463856
  6.0900048303450678  8.3651917568482350 10.8503702052689839
  7.5283435000992442  8.9628130621310387 10.3541228052150380
  7.6323308420925544 10.4242234410374834 10.8461107851360428
  8.9809137055017203 11.0601948298338328 10.3236845068181076
  9.0670093730486538 12.5419312089061652 10.8489482286693200
 10.3821434268604129 13.1906705169483303 10.3616016078073656
 10.4730715273581900 14.6764442032403686 10.8944927282721373
 11.8433229369387387 15.3173551574580404 10.5611424595214984
 12.0514143205127411 16.6196206502229913 11.4064965523532358
 13.5302920997079532 17.1998932560708404 11.3557151420814417
 13.7398101313317245 18.6678478556259329 10.8101096392467220
 15.0537598025064732 19.2989104779823215 11.3687098717971047
 15.2357382399308356 20.8270181338499398 10.9656036815380755
 16.5279441381597820 21.4623310635734796 11.5268289087840117
 16.6819396707445833 22.9650837697652257 11.0038019881560949
 18.0038223292442332 23.6253867888332216 11.5102964384265629
 18.1718593616627189 25.1066969489896543 10.9338357584347143
 19.6078123688772692 25.6704377976860272 11.4433431523221465
 19.9537053019011523 27.0471362596697205 10.8484195528069840
 21.3232673887094748 27.7059364091648064 11.3089742436014529
 21.5093670767223557 29.1376650049526305 10.7437193074006121
  5.4202726525260623  4.1411808383127999 10.6375420295478165
  6.8433285668917678  4.6311679433112811 11.2690202717259780
  7.1256595449070010  6.1751353748860591 11.1661062364568071
  8.6419739893308503  6.6343075861089362 10.5297435598211440
  8.7769644784734755  8.1404685570705269 10.8660152884918713
 10.1317103331146772  8.7030655723627284 10.2520037487603144
 10.2463211069463700 10.1713876002830297 10.7809357427108079
 11.5322386677990476 10.8210125398887058 10.2155074977647331
 11.6197925644709610 12.2385088715843970 10.8391604408085502
 12.9313378831428825 12.9025324841445386 10.3956731494697614
 13.0004294001531644 14.2275875707572137 11.1786704768535436
 14.4779244423529825 14.7584538385164521 11.2830432528635427
 14.5442099114599266 16.1981396112432563 10.6942451236710898
 15.9603242678029122 16.8477704343151551 11.1771628732416968
 16.2485898361060599 18.4629185515262826 10.8675944499370107
 17.5085120905542979 19.0180309330445425 11.5240675367277170
 17.7280747275594912 20.6226599799560617 11.0864633329776456
 19.0123566193318077 21.2122068811597408 11.6155035065557506
 19.2013944003177137 22.7747742776612974 11.0822083786995975
 20.5496691784902445 23.3423842826940806 11.5210406600459603
 20.7776958643731540 24.8152557561848042 10.9345298210727897
 22.1648516520257353 25.4051218435932249 11.4791521309064937
  9.6761175909658590  5.8021654857216705 11.3597034779004016
 11.2104766459229523  6.2526343489283738 11.2247098137948260
 11.3593254113302411  7.5248451143317219 10.3818006446925715
 12.6398138598721772  8.2106512825695379 10.9181138805718341
 12.7844701707005832  9.6059294288551023 10.2706034766770617
 14.0333129693778886 10.2560894556185858 10.9040104628233703
 14.1809681540750017 11.7056416125002691 10.3665062437809858
 15.4685038583221779 12.2969933904496855 11.0386349672306974
 15.6115110501564143 13.7793870644838137 10.6392118590315725
 16.9505787112483439 14.4065551330229091 11.1636957192288850
 17.0666372623575207 15.9101601820885161 10.6907255099377370
 18.4051139029246507 16.5330504252227968 11.3019790323100153
 18.5549870694304033 18.0549775562633101 10.9396787168312706
 19.9091187093636499 18.6839402945325013 11.4198737098274226
 20.0194449406741128 20.2089191190598463 11.0002806476027128
 21.4057589685149701 20.8393636386932393 11.3688213171194068
 21.5159226693907684 22.3534834104567999 10.9003667185945119
 13.9046908972319354  7.2601680222810829 10.5819057577044013
 15.2247316492742506  7.9176124419285072 11.0962930443041525
 15.3233237392527677  9.3597839870958133 10.5262534652841548
 16.6407071418526193 10.0024841758719276 11.0829349314867542
 16.7432470248788512 11.4623198002926010 10.5817309221651392
 18.0696122020823182 12.1109518528526721 11.1328099030728662
 18.1786165961391042 13.5901766602109753 10.6537375515884172
 19.5105554337541172 14.2438056453518520 11.1892041585870547
 19.6103828248930085 15.7379389056726637 10.7324396785389151
 20.9629254437188344 16.3941385099572550 11.2263750998981831
 21.0636913814969802 17.8890241139853536 10.7691886606551979
 17.9112355236893990  9.1717997108732980 10.6282292346746665
 19.2361489032619097  9.8332377538673637 11.1507861649778430
 19.3251844989441537 11.3031544812389608 10.6445082022416084
 20.6526807009497766 11.9684000891145317 11.1641549837232663
 20.7451389410388920 13.4487702280025694 10.6680305190195988
  0.1919744954302292  4.4543654628103893  9.1082194827972529
 14.0470798506074317  6.9817620168779895  9.0312867376784247
 15.3658158029605474  7.6738482430002568  8.5332901754443977
 17.9575994567293513  9.1125676782640834  9.0707979577262190
  1.2276654448983728 23.0587694760479955  8.5984633356866347
  1.0222257966009263 18.5946519393762983  8.6526523929497330
  1.0816275189633875 20.0911653094465272  9.1241283349787903
  2.3952348653174269 20.7845894499400821  8.5962095394408689
  2.4721413545966002 22.2601318126396244  9.1064360115728018
  3.7995825269409873 22.9453136357205416  8.6072985595797533
  3.8681038575148929 24.4165347410996176  9.1144958266562259
  5.1990018105817279 25.0925675330330193  8.6224158961764612
  1.2360812178250382 14.2453290694391104  8.5451898518888587
  1.0345925486527681 15.6318859278409601  9.2423545670488760
  2.3804966979156275 16.3927820248332132  8.6941769523722439
  2.3019931018411741 17.8360714236475530  9.1585218933268955
  3.5891901529387953 18.5436024669248773  8.5272954249428778
  3.6571692640368525 19.9953054115085180  9.0722091594243928
  4.9813861234125731 20.7014427923428705  8.5732872206972797
  5.0511388503725518 22.1527382171768004  9.1185939913670992
  6.4001586838500915 22.8498109826444136  8.6590197022595881
  6.4524259143322009 24.3089401976545645  9.1660013228102919
  7.8056948630717011 25.0073789148481040  8.7070161895688116
  7.8184229619028596 26.4952475116407378  9.1108457752507448
  9.0442063597757780 27.3508776331060552  8.4646071752903165
  1.4901973335675913  9.6192994740080024  8.4693562583014508
  1.5403543709919729 11.1322311070111830  8.9763712304741627
  2.6092858926499680 12.0377261605013555  8.3918264552084310
  2.5531276229866640 13.5384408139805075  9.0582753730533714
  3.8350622082143428 14.2278582996494531  8.4827708122822152
  3.8724694994019271 15.6798029777510060  8.9853377532939938
  5.0636350289096432 16.3686288935541100  8.3179248379629005
  4.9079987332515111 17.7804982840364012  8.8946230500613428
  6.2122827339338729 18.5031809634906494  8.4037376995216988
  6.2483881436871078 19.9099078615995388  9.0404812418136213
  7.5985194368645281 20.6387621540128450  8.6226573261919874
  7.6484107033510123 22.0737006694432090  9.2060662340370563
  9.0240456859254525 22.8295319187944514  8.8308079242475017
  9.0280049319546318 24.2834101710129460  9.3737577693370984
 10.3919909443332497 25.3359935793905855  9.3431724666494897
 10.4557963495277306 26.6618213777176862  8.5589946611735375
 11.7241523009164776 27.6221504629107208  9.1699916857470907
 11.6512317437657664 28.9429658837863535  8.3263600247226002
 12.9220905489478763 29.9194186170481444  8.4238384249956635
  0.1307928850383878  2.9711824741855875  8.5985040942762545
  1.4766984015278695  5.1226570221690215  8.5533047872102230
  1.5318311112299563  6.6188139328954056  9.0238658394530535
  2.7578367987810015  7.3000637494305591  8.3776322871638822
  2.8057952932425825  8.8280418075455636  8.8164741410900884
  3.9043073051789765  9.7284461338314649  8.2122840511406299
  3.8878753749590214 11.2988748739688383  8.7790219567616443
  5.1644010519791621 11.9976145850623332  8.3054688119948352
  5.1852811692306604 13.4748305213280606  8.8620293753531083
  6.4560371371351790 14.1494825349540161  8.2940209756596897
  6.4960847126849508 15.6066170887868818  8.7476450225285962
  7.7309511982728276 16.2996984286493962  8.2182337543216661
  7.5102815926515154 17.7015528790705972  8.8284729004296949
  8.8393500735568260 18.4446778207206350  8.4581417364074571
  8.8438880616031259 19.8389907287303089  9.1281856209167440
 10.2026270966054202 20.6505470439993708  8.8064500520257312
 10.2004140827356942 22.0498667578019187  9.4616256710967903
 11.5677012293601305 23.1178076793499940  9.5231373644163426
 11.6275961406161592 24.5356855954775703  8.8967213715514433
 12.9585801020666711 25.3492334211086607  9.3696152621770388
 13.0119118327793224 26.8344178372427429  8.8266213735213057
 14.2736827741022108 27.6064012913895560  9.4059677835020619
 14.0511777318108315 29.3002948504220591  9.2526389462984682
 15.3555063664216629 29.9354580121075031  8.6923465802206739
  0.0046443026374141  0.0044512059346441  9.1013418674248676
  1.3234443929611341  0.6796823595355758  8.5980712727731952
  1.3868787312409279  2.1618437423203916  9.0969226210195444
  2.6953829462243242  2.8285457003695744  8.5757351278835969
  2.7530852676061599  4.3244483001829499  9.0395389798877428
  4.0314792033403073  4.9952130494737697  8.4707137909958163
  4.0415358002120154  6.5245357078577859  8.8450597044798371
  5.1781338000378438  7.3782183262097387  8.2637781560405088
  5.1280485585721438  8.9978652484794885  8.7182517751128152
  6.4078240966986897  9.7003923324024015  8.2647347579328674
  6.4206464550110347 11.2083965576106550  8.7881450259677898
  7.7191834230179390 11.9112712210095211  8.2907005401934644
  7.7665603146356226 13.3843510482572867  8.7902932929982978
  9.0697774174156880 14.0761723636740221  8.2837342209680802
  9.1074567115918388 15.5300874899283183  8.7567222545149779
 10.3779931313507614 16.2679136604953669  8.3471444811604751
 10.1296787964894115 17.6445702521886680  8.9445877288800926
 11.4240227007684254 18.5513882349005463  8.4987186940473496
 11.4010058735085824 19.8287965801090174  9.3482237807563671
 12.7410343653236229 20.8659506634183991  9.4939861433174730
 12.7835262185520389 22.3361101235519257  8.9642467565053732
 14.1317098439216284 23.0836558675718564  9.4291160809462973
 14.2011319602691284 24.5581699136524065  8.8870102176713601
 15.5105817090674538 25.2823016104680889  9.3814919653947886
 15.5032337636857704 26.8236968663891773  8.8643801730043954
 16.8035639751655346 27.4910339888684199  9.3499490210376237
 16.5739255098608638 29.2359826487693262  9.3126731952543587
 17.8319877601484933 29.9079394047554281  8.6858115154811113
 17.8764357495817947 31.4532038352774350  9.1110070809691557
 19.1891119507437118 32.1420733782042518  8.6003264939320978
  3.9521874434206530  2.0374135853057367  9.1049193910117658
  5.2557806804413296  2.7242772854327808  8.5929936123921884
  5.2998349612164830  4.2308300703498656  9.0723407458679723
  6.4955984573250429  5.0497255728929389  8.5852401375868315
  6.3787720372353913  6.6875613605516460  8.9058902361637049
  7.6517440375271351  7.3927590192741484  8.3975971553178610
  7.6339972560267535  8.9300531920038875  8.8076694708780998
  8.9233077593438992  9.6611867719205673  8.2576038495944406
  8.9818220004863640 11.1328522894518258  8.7673813090846870
 10.2941327775777705 11.8836737698825559  8.2514409438252709
 10.3504845891176327 13.3197957561490430  8.8171290926687913
 11.6719673236980555 14.1078647589467518  8.4129185011041532
 11.7168949540715523 15.5628160994676801  8.9757562090208971
 12.9712224237242886 16.3510943502032831  8.4273130597740096
 12.9007721269786675 17.9375466564042725  8.3800727315984549
 14.0089413243519196 18.6535441635482684  9.2232021031395739
 14.0352672922741384 20.1649292136671114  8.8924149640690775
 15.3588163049350612 20.8484949100005252  9.4213421406871536
 15.4142452416001543 22.3076269746946458  8.9293190815049783
 16.7389036685619992 22.9864343022991946  9.4532061472855897
 16.7711635567055737 24.4590163807914465  8.9069574307346020
 18.0723042929205135 25.1744379627195443  9.3716469657570283
 17.9333432525069156 26.6992601864729338  8.6443483274658632
 19.2121471727741451 27.5647952963169658  8.5859474400522071
 19.0742622485051783 29.1483135279181234  9.1721494892484881
 20.3710301514632519 29.8519811847836714  8.6624603155499518
 20.4214184927493179 31.3601252035847864  9.1359161129187338
 21.7335737464060053 32.0418981588457683  8.6160305817186611
 21.8059581786754180 33.5351409761371428  9.1043333490935883
  7.8390124391958365  4.2514173044737040  9.0565969848116321
  8.9485416902698809  5.1427601370138420  8.3902234099368975
  8.8984800138771121  6.6239936308278180  8.9412896486755411
 10.1718468911172746  7.4339797844692068  8.2963577422458865
 10.1721444150366906  8.9012590123824769  8.7110583484203570
 11.5261729791557350  9.7102357273893887  8.1580507375967173
 11.5462439966708690 11.1232731756858261  8.6890332966540811
 12.9252726750742060 11.9808492996115561  8.2452499618436725
 12.9226989940451258 13.3543947315866394  8.9067816168507274
 14.2820966159081042 14.2754278736607763  8.5940650343683096
 14.3015369619880968 15.8311676408035282  9.0810827295119783
 15.5874584425286784 16.4779994136722081  8.4877757069313038
 15.4725193149786051 18.0424419973952546  8.5970835901725451
 16.6590223542449145 18.6412688484831826  9.3768231659491157
 16.7315645882298121 20.1092440643807890  8.9371624605434352
 17.9959069539345897 20.7629473993401703  9.5597944770248873
 18.0666543434399998 22.2008593464691906  9.0001628110426068
 19.3601913049026493 22.9078516332103987  9.5407915762320226
 19.3212050198507903 24.3771906518866359  8.9323602134383595
 20.6080083922103192 25.1296150362564958  9.3808892247047844
 20.3596413850568183 26.8126842991314440  9.3327145855830711
 21.6564884002621234 27.5368627011758811  8.7645782518634636
 21.6163241131698953 29.0642879220340333  9.1939057298185212
 11.4975631038061827  6.9601936715748316  8.8746739633103839
 12.8349706575983671  7.6819095898874439  8.3766841195757955
 12.8603415998957740  9.2028646719260099  8.7539914174580034
 14.2085346420689831  9.9297567243232319  8.3286131455299994
 14.2356880969514616 11.4175058629036084  8.8181158525032988
 15.5663565249809892 12.1740331852193755  8.4549038808305035
 15.5918768405472630 13.6460101689854749  9.0720450070555092
 16.9174900024655344 14.3639211639756361  8.5967139221195410
 16.9460720293517824 15.8405869877727881  9.1236898082442757
 18.2397030661570874 16.5748666835199359  8.7189329954131143
 18.2573702989819786 17.9908548390407184  9.3924198208541689
 19.5165830119835242 18.7200294864327930  8.8469800727925847
 19.6046672752156290 20.1242150884525053  9.4848414876847116
 20.8144458420871103 20.8394497071123190  8.8313219226903676
 20.9168095077610587 22.2879906752585448  9.3886290560623475
 21.9846763736028876 22.9945118973065554  8.5441763287752650
 21.7734691126170432 24.5991295502245819  8.4879415464442562
 15.4101271705248610  9.1979111285647495  8.9655540141664485
 16.7387311710506914  9.8990468471793438  8.5141825977322529
 16.7864013770585565 11.3950262788687322  9.0178673314790938
 18.1120107914755337 12.0929038487434752  8.5640178672133356
 18.1653886304110230 13.5732288415920532  9.1020044446985029
 19.4710673131999563 14.2730445788728346  8.6205076171840211
 19.5227511417012067 15.7491478594762651  9.1689589222345891
 20.8091441000123787 16.4363047889753204  8.6586889930631461
 20.8588824241217736 17.9050020313564673  9.2108343254937601
 22.1203062778144144 18.5877935230861553  8.6238773015897383
 22.1914073569820403 20.0654878993831218  9.1424591618319742
 19.2776974822116642  9.7973656861448877  8.5808615754922961
 19.3428503733481882 11.2871377085970721  9.0858743535187223
 20.6584415812884075 11.9711903733270741  8.5935568610527593
 20.7219258237768287 13.4546539393770459  9.1094963013378649
  0.9657108987864599 18.7315511390111311 12.5941858727267171
  5.2247647684931282  2.6624892550366499 12.5345527216249817
  1.2103703431891399 23.0664073202257498 12.5477114914758427
  2.4056158408847654 20.7639994350708150 12.5449089997437948
  3.7552443866113552 22.9127290783690896 12.5559587167669680
  5.1177904801948770 25.0927281691703890 12.5684676296312503
  1.8001634411017473 16.5334534900797046 12.7488850841839501
  3.6534077108470906 18.3734098013950238 12.4855006179262400
  4.9294009622153583 20.5515710052188005 12.5212864060748448
  6.2461312036881651 22.7456982631440887 12.6055516784102544
  7.5992629507997602 24.9352427236698979 12.6633885097614414
  9.1405361998568022 26.7937704189629251 12.5294959939786690
 10.6522365540756567 28.4657007641132367 12.6536622942600712
  1.1244921331851949 11.3366387760827383 12.6672743784719515
  1.9218342235437345 13.3630572652801387 12.8013205341409648
  3.4617237976023887 15.0759798869757109 12.5703071852351727
  6.0468680326711812 18.0638737247825993 12.3476075709908297
  7.3776625101013291 20.3267700777772653 12.5608637239205461
  8.7072798788313168 22.5081509156711235 12.7780119005338300
 10.2832649249063230 24.4310733152356043 12.8662582555073612
 11.7690075901008555 26.3968657522966588 12.6984444741672835
 13.1667873817001588 28.4858624633108732 12.7295011904893105
 15.1283366058960080 30.4997312356071397 12.6064012964515566
  0.6330596314019453  7.3623583762972720 12.5570257670688772
  2.2782503060788710  9.4516251065072368 12.3612822747857027
  4.1107365310973547 12.7111104335803446 12.3006404214459870
  5.6520282745943700 15.1005648355824107 12.2589535195389487
  8.3725161370521732 17.8510155860964588 12.3579774189359419
  9.8225169905774106 20.1127928715190052 12.7158609894869450
 11.4593835088567531 21.9461884443279835 12.9521498306261709
 12.9175353289426607 24.0739949327579197 12.8674816174970950
 14.3469083695019641 26.1291884045533571 12.8126390636526217
 15.9324555285305927 28.2033229164666110 12.8069504619354504
 17.7281604906262302 30.2281745013304999 12.6328419131360388
 19.1137560573678265 32.2949250399761425 12.5451868200410495
  0.1910215718286986  2.9518625232058446 12.5467991848228593
  1.6700171144509846  5.1454698040034206 12.4995008713786362
  3.2675308943814105  7.3398538062898542 12.3161449792820843
  4.9860199335230275 10.5243851311303818 12.1937048395490706
  6.5584022894828493 12.6927716165400888 12.2470498066572269
  7.9543680346720551 14.9654208293527464 12.1947735132460160
 10.5902164270157400 17.8975876698627765 12.6191839924462226
 12.5739546617180498 19.4373406060873677 12.8096727005045636
 14.0389007651573596 21.6834778959619427 12.8784542709950038
 15.4562106693357411 23.8426296185161917 12.8452351421552518
 16.9522650532743562 25.9636094917515337 12.7972713473860953
 18.6741837110588484 27.9477641336249931 12.6405402454778439
 20.2568854043465727 30.0256828127342850 12.6041978213883645
 21.7088386145338994 32.1137133743284622 12.5620655530951453
  1.3113668297933154  0.6826880343428555 12.5470363228742023
  2.7335474519320884  2.8746835081408983 12.5223161705728678
  4.2224759006571277  5.1245910172694513 12.4269698192054321
  6.0260386339745020  8.4611030232643767 12.2134402347389184
  7.6495449560988877 10.4510271183872128 12.2226923694002512
  9.0427761593427682 12.5210253296851164 12.2255233377835442
 10.2852539925680233 14.6362681939800723 12.2544031086901466
 11.9532957756398996 16.2033908573634662 12.7077193711734235
 13.8381503840704507 17.2766919544795883 12.6959731142741319
 15.0761686678151516 19.2865635753629583 12.7475378798559493
 16.5119621836156938 21.4754632236966962 12.9053518257700173
 17.9890059183945930 23.6755457625936145 12.8878179883035262
 19.5232287113534326 25.7023718389999196 12.8146827621841304
 21.2995990583834818 27.8411336187514458 12.6778830734723922
  6.7674555189892427  4.3955837232570918 12.6150873875126415
  7.1440264051645341  6.5649475143957687 12.4681842145191784
  8.8567766205426040  8.3206060099721579 12.2252122932622793
 10.3083702483837687 10.1772212827503097 12.1512594642612850
 11.5729077445963000 12.1139602588531847 12.2006781685408150
 12.6600982503619175 14.0269029521370516 12.4794931883661224
 14.7220012197750751 14.8001451957179011 12.6291759144025999
 16.0395565356335688 16.8069982038646373 12.5544452083959523
 17.5178908077830329 18.9846606456455476 12.8962389455727191
 19.0698727555320851 21.2468166791994726 12.9874163746297171
 20.6756468104360671 23.4204058719614991 12.8901696177029041
 21.9303062055951301 25.6340057588923678 12.8177217011846984
  9.3867551491336378  6.0960839876364501 12.6657814546645540
 11.5337169168843694  6.4198916171924303 12.5449220454480113
 12.5882232213591809  8.3658874987608041 12.2820190881326994
 13.9136221391978765 10.2871098442001223 12.2731513808412362
 15.3515467539228379 12.2299226171711393 12.4119075756690727
 16.9934469019853687 14.3401600817165651 12.5381578774149816
 18.4196687618227415 16.4112266908387241 12.6737973939062876
 19.9694690757607027 18.5818214231149490 12.7918644858365855
 21.4809133562739305 20.7313892675636318 12.7405138552201596
 15.2059476865972396  7.9782265717940142 12.4742348297898751
 16.5962434888599333 10.0059074724829173 12.4614317369064924
 18.0392446845695531 12.0759748002986171 12.5104366203089228
 19.5155987235429578 14.1877466058650654 12.5661595673235240
 20.9948579834978730 16.3406413365114851 12.6040148430310239
 19.2236489309223693  9.8371715356134306 12.5292912280351079
 20.6468630372986155 11.9545777852656609 12.5425112915941632
 15.4187205544533867  7.6309166430710809  7.1548731543533322
  1.2282159532903352 23.0588431855304421  7.2199353603038174
  0.9903343402759579 18.5918121395349232  7.2756095811345167
  2.3653006547181636 20.8058310170362653  7.2183770260056921
  3.8021019547524046 22.9509270488961761  7.2287872940018794
  5.2199055342259983 25.0591530620621903  7.2445829435315723
  1.4828350507647776 14.4310548803619376  7.2046321341260198
  2.3383041547252645 16.4703709877125135  7.3170280978605184
  3.4891914857202977 18.6006861949802520  7.1549829249607582
  4.9572482925346195 20.7450524285970488  7.1950462269780360
  6.4357123250454986 22.8537115587973894  7.2802071957484040
  7.9110655799925764 24.9327888795048374  7.3330688966901461
  8.7993353011312525 27.4259322854258443  7.1200093204185162
  1.3820114928908815  9.5660916757607133  7.0973256033672270
  2.4750555413463355 12.1671476837718107  7.0296286831534882
  3.8224185820314389 14.2615270605815461  7.1043783661724920
  5.0308616029813349 16.3918863212376671  6.9459042277896375
  6.1635427395349076 18.5991744232135936  7.0307322446339846
  7.6217146905752946 20.7062325736452024  7.2447322230205264
  9.1435769739439010 22.8507395282379662  7.4613221065830029
 10.7579517371075450 26.4204106984085030  7.2555303000581324
 11.6921784036493257 28.5181500235851892  7.0246649501486891
 13.2246892180049009 30.0677758989202886  7.0963361445173421
  0.1232625430636190  2.9685945701831060  7.2199971830550611
  1.4379311748239332  5.0850216917656486  7.1753655834757915
  2.6805332307620175  7.2233500197593505  7.0049364411826627
  3.8334912124483029  9.7911091954406828  6.8424964799830050
  5.1414138870216561 12.0306494505044519  6.9272157436324209
  6.4380729013710587 14.1465283453777513  6.9153764139307832
  7.7929167989581174 16.3270202018692601  6.8466587788353026
  8.8043952848775540 18.5612581313247773  7.0862945816638634
 10.2789926947668917 20.8057636895003206  7.4434763024021118
 11.6577325214929495 24.4048825966028247  7.5349961232823413
 13.1609486119316319 26.7567918652427359  7.4645533737740104
 15.4371343481869356 29.8039022104823026  7.3267053643020468
  1.3253013810698695  0.6681873592405393  7.2196881190783193
  2.6811513236579758  2.7796662012968238  7.1985976707627266
  3.9993448082094929  4.8845989992781389  7.0983383762233210
  5.1561247534007402  7.3591175648887432  6.8917507461811791
  6.4072112523250038  9.7110102179421105  6.8859852354132993
  7.7082304259505410 11.9195713084826913  6.9111541948979385
  9.0869533335839296 14.0798787363410884  6.9049347177473335
 10.5365943127820891 16.3239438515662769  6.9818867542100014
 11.1376834529501725 18.7609489353590355  7.1758878910334971
 12.7303865198424102 22.3494659021115893  7.5935274394450554
 14.2216499986439757 24.5202481548387716  7.5103473944822552
 15.4743861143895440 26.8321881663748769  7.4947893996433157
 17.8021409769768866 29.8354626307588831  7.3092005054917255
 19.2024286850555264 32.1203224533301466  7.2219728337926075
  5.2003941601986208  2.6688187348592396  7.2185233699631892
  6.4058624690423533  5.0262631247597289  7.2084271749703017
  7.6161489001726901  7.3879203379356744  7.0191415658215659
  8.8976687292021808  9.6482096033706704  6.8789760137909921
 10.2795022639908087 11.8993882137945128  6.8728288001984845
 11.6877292487456490 14.0969062718103597  7.0341015532265185
 13.0209737543690736 16.0410960408809586  7.0863152976586301
 13.2366739446929458 18.1972990264832610  7.0778735495034981
 13.9862208854554897 20.3536288613624272  7.5330318113914272
 15.4130069211792673 22.3219627443047557  7.5534624648936584
 16.7407878954227733 24.3468306563824299  7.5367831544178134
 17.6768483550121331 26.4453192316175283  7.3336891401550508
 19.4511782885816018 27.7150872554651571  7.2559593166619942
 20.3855944952131622 29.8747479676737733  7.2859596205394004
 21.7273253251519094 32.0337222472869527  7.2378915563319293
  8.6428563359733523  5.2585617985127575  7.0522505048038004
 10.1216416096616690  7.2744769560914770  6.9312794588896605
 11.5040999471342520  9.6449554001913196  6.7867565186525729
 12.9515687506441974 11.9907298080086200  6.8731607774963983
 14.3455228896375875 14.2224976389051925  7.2163614261759843
 15.6428895357518787 16.2409798731296284  7.1408384423986329
 15.5121578400173235 18.4389977578111726  7.2971806978984217
 16.8235091443533697 20.2050097890289315  7.5755428937008871
 18.1013339896676193 22.1365792119765352  7.6294730139791502
 19.2426222508741525 24.2202136110686901  7.5704069323135306
 21.6899718895892235 27.5023650392601340  7.3861208557378930
 12.9430809949720000  7.6568964476506762  7.0037235074893873
 14.3193781419979889  9.9229817737433699  6.9560587931561511
 15.6811311005734808 12.2155833337337665  7.0830743242261338
 16.9924234299333712 14.3551230500702918  7.2220095081161162
 18.2481023809192386 16.7130570115679511  7.3458841970353692
 19.4338470096191784 18.8291881078999559  7.4786965191954549
 20.6518854715240785 20.8457011313681093  7.4674110043209101
 21.9225364444383501 22.7016148656784402  7.2070795221759774
 21.3463089026102182 24.8682100745807695  7.2080899426523439
 16.8024018818127274  9.9002809274509715  7.1365976784418184
 18.1662771107126702 12.1137261760037358  7.1871319272728549
 19.4890808970635625 14.3125179199323096  7.2427684745776091
 20.7823937925265128 16.4719015653500271  7.2801201570281968
 22.0401723228178774 18.5884186877688080  7.2466170827975995
 19.2994741010131889  9.7972363008736441  7.2025388678087516
 20.6727797138194269 11.9773940605991047  7.2152066836257349
