C  F 
 1.0000000000000000
    22.0013447048605464    6.7456996425721272    0.0016334532426875
     5.2076611539255513   22.3846069181593919   -0.0005561137653606
     0.0019249030827410   -0.0008747025500445   19.6068330643787014
 C   F  
 316 164
Cartesian
  3.4877214757073207 15.8019558391146848 10.4915509565306984
  6.6532374237631542  1.9089085598307327 10.6731278545852710
  6.7802004658013644 22.4452555727590024 11.4148810405151728
  4.8693851637768661 18.4017719758353024 11.7817723243960639
  5.6419807855495572 19.8159173966116953 11.7020719643322604
  6.8374581834597805 19.8579590779904329 10.7850629288076334
  7.6760768364239347 21.2591807180980652 10.8511751451517569
  9.1403330773608769 21.3129458705048869 11.3369308299813589
  9.8299503672959503 22.6293625899245114 10.7527040131603737
 11.2277675272391715 22.8981981005507969 11.3119156971422843
 13.3217130296203639 24.3360563215808767 11.2675054080593515
  4.8490211800210492 15.9296525126230648 11.2313479353708008
  5.5325042985330297 17.3344611204596148 10.8382637287002161
  7.0571904024656478 17.2670828291785625 11.2586663068266670
  7.7622748915169488 18.5243679329662463 10.7134738519195842
  9.2457993264642901 18.7366633492101471 11.2371632330982081
  9.7941679101450045 20.0674482001849803 10.6900023921509248
 11.4238539572997038 20.1777668936198857 10.6492018937933111
 12.0134122944572219 21.4982536656252456 11.3912264534230783
 13.5945973125919082 21.6943302067441941 11.2920990776406693
 14.1656585885924144 23.1326019474784630 10.7514033207665971
 15.6467596263597546 23.2104458060403651 11.2626729194371347
 16.4069934759021692 24.4585767873022455 10.7233944182947649
 17.8041557260781005 24.4923036948316550 11.2674247520951631
 18.4605492267653730 25.7142639412093672 10.6229290693574470
 19.8716782088462409 25.9884518485064682 11.2182335017706230
  2.8808558138857032 11.9208535448322728 10.5549686703839232
  3.6355835735155555 13.1236910259043071 11.1378252957530481
  5.1228778456817938 13.2699803775273093 10.4344889687425812
  5.7305935053486534 14.5003106319833712 11.2448990732830190
  7.3223226591895569 14.7212655619573010 11.1538271560154829
  7.8804489382732532 16.0748047763721438 10.6279266440779594
  9.4001036108340763 16.2302697947880894 11.2021544577172367
 10.1388398743928239 17.5696906670513364 10.6623023527453018
 11.5712262075527619 17.5216092027422441 11.2707926751941319
 12.1256906001118381 19.0002149734476333 11.4882154733503192
 13.7231711415268709 19.0978258351853043 11.5207479257279619
 14.2970846332041024 20.3512335581182988 10.7215114836109588
 15.7858559883700433 20.5612869849464630 11.1512495381356853
 16.2993446548020238 21.9423396187682087 10.6674057575582193
 17.8927659692563736 21.8668068207044541 11.0676275871910690
 18.5255944656610545 23.1723283830359321 10.6678095987894839
 19.9968128877354800 23.2619116377100426 11.2414560361282945
 20.7673287987224349 24.6908614590043314 11.4002943614127616
 22.1538726286900172 24.8258818250311393 10.6235228490244911
 22.8200672421759982 26.2365551197181333 11.1506986142049467
 24.4677007333047491 26.4015080095613044 11.5071560490377252
 25.2984533161371736 27.4898097850060097 10.7083743924323205
 26.6503792146134231 27.8193111330906007 11.5085203040135209
  3.0799100639574974  9.2436492953622782 10.5014555849972790
  3.8000714522129129 10.6969285714537836 10.4516698828202674
  5.2214463058469267 10.7139503693801679 11.0520066310008964
  6.0543109327994404 11.8908718786189880 10.4320618933570657
  7.4614367748306289 12.1550856655599588 11.0112249051881008
  8.0609774841130299 13.5095760051971396 10.5178625927830272
  9.5520103605277331 13.5278608657187309 11.2434579816201268
 10.3740307065463764 14.9213657957630179 11.2592724164414264
 11.6697873474025950 15.0899982689061964 10.3976210077304021
 12.5101340987921379 16.4580359816844854 10.6687032839164804
 13.8478068626075412 16.4468057323872543 11.3950128113416103
 14.4571921452335115 17.8323483416004684 11.0254067248404439
 16.0058056199310492 17.9355707293044517 11.0730699931289625
 16.6664188512977631 19.4823175378513085 10.5264224641817421
 18.1306476125039637 19.3585974534816749 11.0311973087710022
 18.9422708238228950 20.5535043614047730 10.5213953405455829
 20.3361171024243781 20.7951805930154876 11.0840261859995053
 20.8864348374314552 22.1982068419410652 10.5795247260587999
 22.4000733793456845 22.2264984501194647 11.1442364815923511
 23.0881222266296433 23.7071666067470055 11.1624273969451924
 24.5994135449036655 23.9367710664572435 10.6133968205275906
 25.2288487273715489 25.0195107966678911 11.6454706023117023
  1.2166959921717952  5.3313103692334742 11.1355267265846525
  1.7490067138445762  6.6805533501519525 10.5094884258025552
  3.3685365515326606  6.7866551315041423 10.5815741157307723
  3.8672007762620972  8.0698553160927808 11.2662545601033841
  5.4639392963406657  8.1630538393364205 11.2625610168041650
  5.8974907641291745  9.4340298251147843 10.6106654744847138
  7.5474717307592387  9.6680879865853679 11.0139240054831138
  8.3803595019280177 10.9965099438638578 10.5351033941490115
  9.7793692485047856 10.9433459979292991 11.1405636326225306
 10.4159251297588895 12.3484706323473041 10.8489756484764577
 11.9125353606843429 12.4724687983655134 11.0484799160974259
 12.5260627388499604 13.7414173143695511 10.3430528127915036
 14.0801993999682029 13.9324289497394727 10.4516952420880642
 14.6474672679820515 15.3727526861050663 10.6697444205814627
 16.1192660383889610 15.2993897729643873 11.1355148222957361
 16.8201966013566384 16.5286762134666390 10.5582709391208986
 18.2796847521941750 16.7635184002362472 11.0259562963315840
 18.7656026430646570 18.0792476483945705 10.4534563549687949
 20.4606848075099172 18.2681232227571755 11.0527654016220804
 21.2838019316156988 19.6859709025549279 10.5988429328229241
 22.6809887273530322 19.7067522289639747 11.2121425430760038
 23.3345223824575783 21.0384900560647203 10.6464323115084714
 24.7748503751032345 21.2753302775873436 11.1585970752057726
  1.4331589768333950  2.6191052597891886 10.6278006251136841
  2.0967673478641018  4.1109292627010756 10.6301804481294440
  3.4901813313003411  4.1067213307211201 11.2625492740529740
  4.1606487611015774  5.3727979542733442 10.6980656877276594
  5.5864700038997377  5.6551602559375400 11.2383585648779309
  6.2810004652390701  6.9005437147794568 10.6213231348040473
  7.7621880316481811  7.1036784094873049 11.0497954571341062
  8.2903784662312869  8.4696257307341209 10.4971098717514462
  9.8781935609280449  8.4056004281130914 10.9634983034614759
 10.5401458225773350  9.6672988549499870 10.4933910670038273
 12.0365344576874307  9.8781579131585264 10.9297641595905315
 12.4932922285628116 11.2260318442005360 10.3423949749123665
 14.1556206813377816 11.3291759416992708 10.2800540986833653
 14.7749478788608197 12.6689102170938224 10.9909092156858765
 16.4295531175832430 12.7229277358418678 10.9876016447812876
 16.9404910897548113 14.0956068242641486 10.5247324987222921
 18.4537136453760873 14.2828547257059153 11.0262001811775168
 19.2380011097727071 15.6033340324941747 10.5474755899372550
 20.5870245637911289 15.7131826591213990 11.4063256768994084
 21.3254633209792033 16.9945105146467341 10.9760615491011144
 22.8092615009971276 17.1586305808905628 11.4167112880564527
 23.3606730022144262 18.4120109946773596 10.7378536822791499
  0.1001190218154571  0.0189524370305874 10.8496352844900148
  2.1465596058064733  1.5609900023012935 11.4671843831416389
  3.7379958707653764  1.5176400989015340 11.3816428587359955
  4.2560700374193194  2.8177117299531877 10.7282088941323046
  5.7971838648922764  3.0402130553271385 11.2711458589178140
  6.6093726078525421  4.4637782063094216 11.2794693699182993
  7.9575696152353093  4.5599823247675699 10.4301335274588833
  8.6829624374701933  6.0341044018477179 10.4256024163121186
 10.1514700098267046  5.9126488047741752 10.9945166291177596
 10.9239768341464778  7.1114066558097813 10.4839927926223879
 12.2493472233572334  7.3710499175667010 11.1047074898898224
 12.9161555468444078  8.7097114384692560 10.3934400210228670
 14.3631827377867758  8.6822513876232303 10.9360012920234215
 14.9716587810807162 10.1578695734791786 11.0510249354316130
 16.6451137583807984 10.2366134319897473 10.9625681265819264
 17.1700213243982240 11.5017155276534240 10.2653286906348420
 18.8181493870652652 11.5617100240375823 10.4163536219897850
 19.3895543696462767 12.9492511779337462 11.0197966186489058
 20.8565310502717587 13.2150295992383704 10.4899638281464789
 21.4561194421215546 14.3678524509994734 11.3800771036090378
 23.0348536962791144 14.6297714124861145 11.2336103377675638
 23.4895068933033109 16.0107324448634394 10.6954212551700074
  8.8711783738540664  3.3827050238655572 11.1590667202780782
 10.2594375072689772  3.2945192446527582 10.5568143461944466
 10.8622018279382342  4.6860000373672097 10.4180525507652852
 12.4806529860567004  4.7674404299783637 10.4244618028707325
 13.0804532943985148  5.9908670501844119 11.2242593478129411
 14.6819702183022311  6.1361238324488143 11.0230865134488294
 15.2664109222979150  7.5111359459952478 10.3345506666403448
 16.7160832719597074  7.7087150044298536 10.9398104611194320
 17.5471264162469822  8.9682433380725435 10.4823791654116345
 18.8198977726913022  8.9860599942511090 11.4392659116127415
 19.4996946795420811 10.4752608863619106 11.4545708287635080
 21.1415934505950283 10.6173060165865767 11.4358340525268467
 21.7478318408521680 11.8577705543558061 10.6264752424677269
 15.3406615568061291  4.8244745620349736 10.4953107957007816
 16.9436809703004840  5.0889777998396406 10.4746282501754973
 17.6199735752888849  6.3487404617532270 11.0676829801403187
 19.2136206417818478  6.4825517427492834 10.4959074867299869
 19.7647625436769836  7.6787089247759779 11.3789984800204635
 21.3293970387901588  8.0328257150717093 11.3515509698136121
 21.8418498695552969  9.4078566144814708 10.7734489909558970
 15.3791632645047756  4.5846648298334651  8.9601978251529957
  5.1905209130640397 20.8843569235903779  8.8608987309898950
  2.6172230933858724 11.9632578734202006  9.0087534250167209
  3.8706277711368058 14.2293492624831099  8.3682255730131718
  3.7817975221706628 15.6587920864001795  8.9655921153312619
  5.0949738905714668 16.4990153861736353  8.4998359260375995
  5.2442384660683192 17.8221419784139705  9.2998049050833487
  6.4821752179718493 18.6600748259326821  8.6983486450111940
  6.4773183221763713 20.0851830034408074  9.2988032622153636
  7.8125449655489705 21.0242515935755137  9.3261650314687081
  7.7603030900001615 22.2797805588395086  8.4732011216401002
  9.0792156537996487 23.1994887594306149  8.4768080552055629
  1.2812344397450217  5.2040837489512057  8.5329529733606524
  2.6306434376605203  7.4797575005261621  8.3987704408492636
  2.7546689987472237  8.9680927937958863  8.9086281182861597
  3.9439694546018558  9.7077445928838202  8.2977493902402006
  3.8957085816921979 11.1025447005359581  8.8641122964223609
  5.0858024410865701 11.9647628202893870  8.3491578088942369
  5.0837615554618916 13.4452522138668122  8.9012690715216092
  6.4490090693300575 14.1388203711000582  8.3824512877231800
  6.5149860202295766 15.7528171059812454  8.3396560136329008
  7.8117871555139837 16.3968377793650895  9.1028632090100210
  7.8042482275782783 18.0368643917429345  9.2070537410210989
  9.0563361407453744 18.7025698348019063  8.6234209150448837
  9.1986575358547977 20.1647720756582487  9.2333752802813738
 10.3512250390841203 20.9636551980339618  8.6140771748405971
 10.2621103911208955 22.4533259311475852  9.1262888870869787
 11.6402139309267305 23.1400442030851607  8.5030898917115501
  0.0090917188229839  0.0231612042176539  9.2485546146068991
  1.2377490519678302  0.7984642426459007  8.5865703327690266
  1.3570074399815828  2.2859738530185849  9.1175979723289942
  2.5857547110167065  3.0353778947416776  8.5391471889256678
  2.4913524820358384  4.4497706307377767  9.1351527587596735
  3.9343278315290999  5.2242015543761156  9.1766045558553699
  3.8175787535114800  6.8024115387519783  9.0293413458102254
  5.1559741156078704  7.5090281729652713  8.5550276198298558
  5.2789459206364793  9.0439627110161016  8.9251741843936969
  6.5394005563788280  9.7432884224669891  8.4878009117841025
  6.3819224427775216 11.3753719524029187  8.9168565787064189
  7.7025296870415110 12.0084137748962352  8.4171933050135870
  7.8315579096644399 13.5065091919505829  8.8955988276616509
  9.0139005335820332 14.2028158444719850  8.0900423355467268
  9.0014159334986097 15.8092241814087568  8.1929625166979196
 10.4420065292376663 16.4544110733366473  8.3834402194302697
 10.3181532678293166 17.8512277630867580  9.0710630420808336
 11.5713599484293947 18.6977509249714728  8.4901611182542798
 11.6550633226409541 20.1873053849254518  9.1081280500296344
 12.9626845695662727 20.8269355309219613  8.5288100789551660
 13.1197388109522546 22.4051267527111619  8.4603071954349520
 14.3271261319629293 23.0898208644618386  9.2231245223020277
 14.3934368030893900 24.5644923296894113  8.4707787788941218
  3.9194438929187636  2.3865784074913319  9.0652433915393988
  5.1716729521089730  2.9874951338644591  8.4039133545320670
  5.0427916047168928  4.5784526681079072  8.3359049065419182
  6.4799759092701965  5.2672476505012487  8.3805462781306765
  6.3983201728778223  6.7565874904926266  9.0226517612325861
  7.7027688413712641  7.4245151019190256  8.4358166161677648
  7.8940621995738773  8.8468080444019144  8.9597898936911680
  9.0281293311510176  9.7603247111623173  8.4271540726015814
  8.8470239596732920 11.1965264672448495  8.9849072427152521
 10.3383435808883970 11.9923797490339901  8.4068225380299726
 10.3420938395831712 13.5409709174724657  8.5073718500721984
 11.6649478029519980 14.2619094809162572  8.1045850883788209
 11.5988359347218726 15.5657034412362627  8.8895910513720366
 12.9204503254295471 16.4904608384060509  9.1352647041184962
 12.9536230455392811 17.8236965534926703  8.3229436413974298
 14.3039777624218569 18.7206036327439627  8.3208344185026277
 14.2516284417630548 20.1620011661106737  9.0889797118018780
 15.5556984943704641 20.8672428850923879  8.5715988253949611
 15.7477212813743090 22.2657728017157837  9.1774727517383212
 16.8727071734089336 23.1840513011205829  8.5512378524086401
 16.7991731472860302 24.5995248380847826  9.1346697234471392
 18.1875390965593446 25.4330756111748748  9.0860288130452442
  6.5325303115372835  2.1832854260277843  9.0518714227802253
  7.7462374229513342  2.9360440280262368  8.4056046813392680
  7.7882099284253821  4.4088767477830331  8.8984658815685229
  9.0515066577717764  5.1611710499942163  8.3324261386711722
  8.9175467077352160  6.5849338351472388  8.8971195536005006
 10.1923325082193177  7.5339342364527964  8.4301443069064472
 10.3664676491159966  9.2321365720502708  8.9342466035110100
 11.6425885445330213  9.8157014170617227  8.3449592566239748
 11.8192693040587748 11.2727378727322840  8.8344576356838633
 12.9759967810539916 12.0668164805238707  8.2257653763048229
 12.8277079269960232 13.5162429093454470  8.7454659307075548
 14.2335667950996818 14.1864642967139574  8.9192844176407551
 14.3309550371696481 15.7332674974724132  9.0953670042196393
 15.5451798826381822 16.4632832258830710  8.3791828485839925
 15.5579087547019412 17.9381977361611753  8.6512007071002337
 16.9082148394464937 18.6679267389998138  8.3325917750742082
 16.7914047998391531 20.0272409198798940  8.9938893124546873
 18.0552364649347545 20.9764343235368216  8.5190446901358960
 18.1985027882696286 22.6143769793899736  8.9994552422875813
 19.4230990692367982 23.1406145062063864  8.3456568434568688
 19.3263543285280335 24.7476349692497060  8.2475245049550825
 20.7360540644213849 25.5085860341582702  8.4134597145868941
 10.3105112931051899  3.0327481001204917  9.0269308608836027
 10.4038477635763638  4.5632202640922666  8.8354282077047372
 11.5724752399938620  5.3065632139720007  8.2490749828369552
 11.4567438532291863  6.8148835180154927  8.8086353825745576
 12.7201706834201875  7.5588224141597182  8.1892931053128013
 12.8864715166749697  8.9588469556324775  8.8151114497935090
 14.1341375344896427  9.7964236195890280  8.1887548691361012
 14.2745924601658096 11.3202841316931799  8.7333423731901938
 15.5561107504521736 12.0105041696770485  8.1857196547675617
 15.5095169736193252 13.6369993819844648  8.2842416125152596
 16.8533329500328861 14.3213416995381912  9.0114274197672479
 16.8642867320726886 15.9462502182367345  9.0193395444007685
 18.1942925766723391 16.5167596712207896  8.4341242172822728
 18.2926924259694665 17.9900432327886115  8.8843342625929616
 19.4341350796818055 18.7918632419649008  8.2995415751266783
 19.3190628184709681 20.2812150130328703  8.9510294638987116
 20.6584980753626937 20.9345185753653951  8.4932836909011300
 20.7263484765315305 22.3980650591762540  9.0123425058079416
 21.8986587355274445 23.2069468399561565  8.4532805570124463
 21.9884805358982369 24.7023133548986387  9.0614240998616253
 23.2961047501015024 25.2926654146918466  8.4658893357822684
 23.2250488368252022 26.9055705521899426  8.2284297606014114
 24.6480133745256929 27.6599045315296301  8.3721374245267413
 12.8132076524655094  4.6670621660421698  8.8816639608312684
 14.1236951995064857  5.2147289087583584  8.2659327737724198
 14.1507886688909874  6.7878417648408362  8.0456850856870723
 15.3869388886989498  7.4989730769800742  8.7824262769857260
 15.4764982220408687  8.9339159755570012  8.0996550673974692
 16.8502255882064240  9.8198474414536445  8.2248816869098391
 16.8625687026467013 11.3645674513801662  8.7326345370097123
 18.1226536756927352 12.0664382190464199  8.1209320801797240
 18.0415385024491144 13.6795202753571328  8.1956276418329619
 19.5236310666607089 14.2943021987670544  8.3389825012015493
 19.4578283429254029 15.7257957200505682  8.9260585549657812
 20.7144970732971281 16.5011751599466123  8.2074419384270278
 20.7369258134402124 17.9645744997271208  8.6008464946788532
 22.0300722015359476 18.6953637743622458  8.4073606338718232
 21.8032840048302461 20.0701266148152833  9.0813332038199910
 23.2161855294221979 20.8966776343031100  9.1132686275463701
 23.2014820342884640 22.2780070582513368  8.3122132778982394
 24.5953846800307474 23.1377202717805979  8.3182536919156291
 24.5608030062700884 24.5192152074064538  9.1325285392382369
 25.8600746074894765 25.3987173267459667  8.9058014345330072
 25.7531809038906623 26.9810292580412749  9.2845365503856456
 16.8438361375762113  5.2432529496750897  8.9378956705186337
 16.7006728820120927  6.6984508487367354  8.3493428460789545
 18.1039509480322565  7.5446406893926925  8.3617756254354809
 17.9879423228728896  9.0135885205249373  8.9427874310252307
 19.3300650279743671  9.8237368239408234  8.4378279192268035
 19.3036818595360700 11.3549522957975881  8.9172983016024538
 20.6795123721672631 11.9842965108675443  8.4779054997696743
 20.7562201574654672 13.4731899634220689  8.9443089631282220
 22.0832221229635408 14.1453274623517746  8.3589511897555457
 22.1691772646551861 15.7753537583133365  8.2636872299912358
 23.3016532101399321 16.3989082260660659  9.1470206976975756
 23.2442616395991770 17.9972782690616349  9.1443467289889764
 24.4817723943561418 20.1076032613589923  8.4063939578729716
 19.3158332431050397  6.7439214502891787  8.9703497337511298
 20.7005578187308359  7.4633347407782002  8.5375399850452460
 20.7898311822507900  9.0903874065271246  8.4348979028184843
 21.8798471333944171  9.7195690351910908  9.2552219610715714
 21.9187952193801685 11.3221030090481349  9.1621624442464853
 23.3838747655952481 13.4713691522410919  8.9458026233490990
  6.7527634876720057 22.1729797474812322 12.7695014988768065
  5.0496801762778638 18.1576323796237418 13.1134862964918444
  6.2347587794679171 19.9276007192177573 12.9482565792638109
  9.2425533677646428 21.3093064846871343 12.7056911813313196
 11.2139095281057841 23.2009849240638957 12.6400160726177155
 13.2398943652050090 24.1660737464191797 12.6312888809445969
  4.5992882241605333 16.0451226379108718 12.5747357924988918
  7.0574414257706319 17.1945347376433411 12.6287189446014558
  9.2416853258809084 18.7855443940482658 12.6143891997023481
 11.8504169007598659 21.2291775533426872 12.7208986301552294
 13.9617938341520134 21.7445238964879408 12.6195760507356649
 15.7306571178624104 23.3181207509534865 12.6345690986027464
 17.8942465092585188 24.4761215589208376 12.6345842011043406
 19.5779681652633926 26.3194583083533580 12.5187980870208424
  3.7451014058345726 12.7891799048212178 12.4734894545810366
  5.5914514645618096 14.0755762902425996 12.5467124563706740
  7.6566680396874691 14.7716638723049467 12.4913194723294367
  9.2454811270803514 16.4592388116641892 12.5469505675103523
 11.4927844973205158 17.0489786693873562 12.5671342269239616
 11.7363156495577439 19.1501451487500276 12.7948705565211984
 13.9947068498553300 19.1969024316609875 12.8697310650186001
 15.9027992951278989 20.4852822370601366 12.5207788534795679
 17.8492003625153899 21.7341617009968822 12.4310198729125698
 19.8014888069797834 22.9277537741721886 12.5636731786148523
 20.9858017158674244 24.6553027581236464 12.7472718159135070
 22.3139035709605835 26.3507167048563034 12.4313218355914366
 24.4670962519862734 26.8406879424811784 12.8070873268890928
 26.4460013960666060 28.0663266991477620 12.8399538031571048
  5.1989140928283639 10.7603438616726894 12.4346388434819488
  7.3557963813640992 12.1557966604137206 12.3880879677308950
  9.3410943426413962 13.2879838163036972 12.5914469307751133
 10.8982104941011233 14.8526106842427481 12.5447590803872409
 13.8055381889684323 16.3109872375911493 12.7601968338071838
 16.2274773913866390 17.9599889010257563 12.4406617672681534
 18.1489844540302663 19.3512001002100043 12.4062783341135070
 20.2650401515785106 20.7216222619941917 12.4561978113070957
 22.1991493607065991 21.9692211898429441 12.4799718180370469
 23.0753429036720412 23.9302524827256136 12.5069074699434797
 24.9734330620589269 24.6405174687872979 12.9275070667306604
  1.3126845686106763  5.4407032864610709 12.5018255999327224
  3.5938182447988205  8.1063019821190920 12.6069482833798183
  5.8123188917523905  8.2112412567761268 12.5874708791432770
  7.5747199710822857  9.7428720521304726 12.3827298249685498
  9.7905445762943017 10.7894768303044781 12.5103930916131265
 12.1218182733510904 12.4880504668863797 12.4176035818721289
 16.0493451292307086 15.2654827563824220 12.5133757764115057
 18.2840815543073916 16.8638458961705595 12.3990749869534334
 20.3078819784032589 18.4057330280269653 12.4208028105457160
 22.7147449020555428 19.6413387013292287 12.5906515577558658
 24.6220937209940303 21.5617670787239888 12.4982475510604889
  3.4623420848406354  4.0817523356884644 12.6345693432710675
  5.3026330567339839  5.9136340973556916 12.5738953440212189
  7.8469695425826220  7.0428839787460076 12.4245636936646200
  9.7938973036037140  8.3638531685717528 12.3279073039295124
 12.1126038099944839  9.9803732925726401 12.3044965117296901
 14.4846351782329013 12.6984264304585821 12.3379869705941729
 16.7681844051032556 12.6831818806146419 12.3217750255178871
 18.3013281187105576 14.5473160029483495 12.3695793258514399
 20.3440322734370369 15.8788771379811262 12.7541035416370558
 22.9006805700296177 17.1503003102824607 12.7860024299331911
  1.8809048268566411  2.0480077387544013 12.7465251977433791
  3.9453688585643616  1.3952154865257584 12.7347230552709778
  5.6027367717903731  2.9856267039448952 12.6324392195621318
  7.0933841146442580  4.5742442084496542 12.5678206894683431
 10.1705927925799831  5.9250025045495809 12.3757531078604153
 12.0119406075775963  7.6969222868376548 12.4171430463695280
 14.1694434713955211  8.3110038727825319 12.2553853236316019
 14.7202323773866386 10.4438618447799421 12.3718063519855299
 16.9270503332068358 10.4094975080054031 12.2886567646152827
 19.5266402410996989 12.7868941580112825 12.3616743948495653
 21.3878019295706636 13.8903689535988555 12.6699251728491387
 23.3965742788501139 14.7165992042823000 12.5590092758060248
  9.1536764765611185  3.7295118670709759 12.4659291473896747
 12.8780920026155883  5.6725789833954936 12.5488018869084286
 15.1437012715457140  6.1554001270735030 12.3270936576695469
 16.4321906681728969  8.0549123172677515 12.2447129294757140
 18.4264117226127162  8.8546296428511706 12.7422857199856630
 19.2387985035612488 10.7779687990955395 12.7551633878699864
 21.4735996974727428 10.7092299043669339 12.7583701987511144
 17.6787995717594235  6.1969857843510923 12.4161672630435209
 19.6628943599779760  7.1670435167683646 12.6409710613960318
 21.6018653017649243  8.2223543681715263 12.6995138839578985
  5.3277574209903982 20.8261138039775702  7.4829384697593593
  4.1103915831953195 14.4274758184384844  7.0236295207302266
  4.8595644264377862 16.8122112416365539  7.1936425103289592
  6.4419643829253639 18.6518526760934726  7.3277210938929374
  7.7081701754743150 21.7047652612095057  7.2013480889392945
  9.1530086936266422 23.3633505424882060  7.1186397286397725
  1.2938763604283967  5.0426405194251211  7.1690260103205592
  2.6524039420019512  7.4972031053973920  7.0228744385643829
  3.9818531448421246  9.6520353346073300  6.9276852913547184
  4.9789988323094061 11.9131549602806377  6.9740931488882358
  6.4362110898289115 13.8015733676947416  7.0459634868539718
  6.7221650012062835 15.9442924517459019  7.0082161625930421
  8.9263515924601862 18.7837743997731366  7.2551830780216875
 10.2479456501728308 21.0270631562361920  7.2442578472613741
 11.4065976199132884 23.1054472382203464  7.1540809107168792
  1.0256393962891577  1.0225183124264841  7.2394507959018632
  2.6213132457960580  3.0237391731430949  7.1657412183399183
  5.1154930581410252  7.4562521552697909  7.1641275722740128
  6.5938575432075295  9.7617538296873327  7.1103048278015946
  7.7403874606383258 11.9056449944336862  7.0418138361408307
  8.8885739686253213 13.9738038312637229  6.7352803458752870
  8.7751854325704493 16.2393746725551757  6.9105373832882497
 10.8543371292970185 16.6205014064506500  7.0753114871379115
 11.2413447892982852 18.8886968702721632  7.1706733545533989
 12.8371859588921904 20.5248409425938334  7.1859801086678372
 13.5165065683733925 22.5925235486311777  7.1511119249681574
 14.7705776361548118 24.4309175635091940  7.1488989925921738
  5.2391325337524881  2.7642487051430575  7.0591491509597839
  4.5480623709179042  4.8598113298967105  7.0563359011652844
  6.7320775731554461  5.4014419038892632  7.0365782643903483
  7.6352000778583937  7.4863838644862364  7.0601141445726787
  8.9968559411668689  9.7476307049032425  7.0509441284592569
 10.2681555183865747 11.7977302249823541  7.0370816560566647
 11.7338698822058767 14.3667633936566279  6.7379308447144268
 12.9893009486212527 17.3720803838818725  7.0114503398225283
 14.4790285555392746 18.9919218778360737  6.9734431421461398
 15.5083052611560550 21.0117069864934081  7.1991723664814016
 16.8416517497859068 23.1925517544645423  7.1700365084625339
  7.5168503762941610  3.0018549987571523  7.0495357354742554
  9.1221469194161848  5.0956102185189671  6.9561451587224177
 10.0258339719164233  7.5871894797666810  7.0692099228378886
 11.5113170255913424  9.8264030685615733  6.9746683910789944
 12.9352564213711840 12.1754704683716284  6.8500970804480694
 15.5169451623981125 16.3335924844203504  6.9998581492386833
 16.9944364563916466 18.7142832057624382  6.9578259794936965
 17.9264437857270380 20.9845407443199043  7.1558867841902636
 19.3993589689401276 22.7513330001050953  7.0297019318280514
 18.9306924683233149 24.8948529282288931  6.9350076006566121
 21.1020745514027155 25.7139218039302513  7.1006187876479423
 11.6038027505198365  5.3400431983133076  6.8784355122285428
 12.3549463938290991  7.7063669558510925  6.8674008156343049
 13.8018761822284102  9.9499462633985747  6.8629071862504549
 15.5552472852412649 11.7647544924092990  6.8268167627400587
 15.4110168469870032 14.0105818890681135  6.9648087121647624
 18.1179531411773489 16.4922801365257925  7.0541849120021194
 19.3778441604597589 18.9217636944766845  6.9279091676626994
 20.7556774551023899 20.8871508563675903  7.1178821841703090
 21.5591650686181246 23.4353520712222902  7.1323125027821179
 23.3706186657055603 24.9032315661680173  7.1481116075388815
 23.0022386498000593 27.0168516040494815  6.8823707469307882
 25.0298512080305358 27.6521372220049884  7.0635578243448087
 14.0495155085828891  4.7491394465841994  6.9749852010933973
 14.2999380653479058  6.8589321626505875  6.6939810080870448
 15.5323548930168478  8.6237854998358916  6.7682945833149883
 17.0978264174217749  9.9745510095507566  6.8900994577666745
 18.2651541932917922 11.9359546747252772  6.7657887999899353
 17.6969076644091636 14.0583928918458163  6.9099522562550906
 19.8880305410315970 14.3341418616002549  7.0057964628100011
 20.4561014666434922 16.5341243582425825  6.8480752926475885
 22.2130930422647985 18.7642222367715767  7.0350696568285276
 23.0867819359303184 21.8429201329098461  7.0089971638621416
 24.7675951056713828 23.2582897007712077  6.9720665200327927
 25.9109576617143063 25.5299883991756218  7.5211537327668303
 16.4936378845335483  6.4448308232513210  7.0148164738363414
 18.3954784833003089  7.6492182054546758  7.0169396945440390
 19.2145736994954071  9.8714728818890087  7.0738674372793087
 20.7305581811124746 11.8564300548978832  7.1099646409231019
 22.1563806123390599 13.8072910999329217  7.0258923582135759
 22.6632129621150398 16.0172981055142252  6.9831244850132386
 24.2519859070191508 19.8798117292058301  7.0697421913239431
 20.8069122422503092  7.1952647538097576  7.1992014669221254
 21.2907804545812631  9.3634444211422689  7.1580841195463814
