C  F 
 1.0000000000000000
    24.4743534787780561   11.1478696665049313   -0.0003607416188765
     2.5730796065015622   26.7618459387710423    0.0008419282574303
    -0.0006328471876245    0.0007295266626465   19.7555193703876704
 C   F  
 436 218
Cartesian
 15.6732641713304037  6.8894460778885795 11.0575858273912218
  2.3334849219531657 25.3231566275263980 11.2108614559197921
  3.1103807465686084 22.9687775952569311 11.4036042197410943
  3.5198610226166949 24.4137602117499313 10.7855420177659749
  4.8722990889174582 24.9339092086252272 11.2812711293725396
  5.1168833993654719 26.4116383410963635 10.7253101724851803
  6.5365924761683321 26.7904669151045240 11.1700697835010097
  6.7486020962304734 28.3283028901799980 10.7492292227000892
  8.1712795863058272 28.6588651903153782 11.3222725132499473
  2.1394281593221591 18.4328489733097385 11.5108847494447168
  2.5778655359641149 19.9498607452648251 11.5754646008742021
  3.9109294806452923 20.3478706560439413 10.8316731674050342
  4.2704975910101766 21.8833440899236180 11.4357903726614119
  5.5770702478256844 22.4067371614083370 10.7638675724080617
  5.9778264405213548 23.9957181694674055 10.7453908413507531
  7.3464912911541678 24.2301124094034002 11.3330682888910026
  7.7048694921865577 25.6495288293120716 10.7645613705294618
  9.0593850844195991 26.1516430712489623 11.2583257528298208
  9.2407358174240422 27.6147975153874299 10.8440556256524268
 10.7140572551886883 28.1266147811727372 11.3332908060888116
 11.1546330156252296 29.5032072226366964 10.7618715106461718
 12.5592297112903974 30.0517153513087081 11.1828316781916737
  1.3470056773675700 14.2091180430305197 10.6322227086461432
  1.5240679285265484 15.6422151986121563 11.1515583046114806
  2.9002557738893819 16.1802501397588969 10.7255940887791876
  3.3964898203783265 17.4557555939648097 11.3759752984147173
  4.8666420391479042 17.9356730677703915 10.7766868261120301
  5.0799522232573091 19.3998064362193183 11.2968885729900546
  6.5009108579446018 19.9310935685337078 10.8735901396935901
  6.7046173425460358 21.3475347669415996 11.4686996627772970
  8.2354906417923441 21.7547117061809701 11.4609197980596953
  8.3276883125314782 23.1215045206869796 10.7536716914707497
  9.8023826889766408 23.7092895135602362 11.0746578656575849
 10.1801476600586192 25.2235652679758466 10.6400401310736719
 11.5595488760502327 25.7442623494033676 11.1877744896684579
 11.8144518506479432 27.2196940695170042 10.7704487111088767
 13.2799911112548887 27.7383525601347536 11.2838265278233987
 13.7210673086427395 29.0990673929115609 10.6240592030508072
 15.1235781652653536 29.6217536072457115 11.0015694454705084
 15.3132430484079940 31.1189459775062254 10.5427702564215249
 16.6886386981617427 31.6637109677546249 11.0227463478074288
  0.9713231347334287 11.2307616954777867 10.7279652506892944
  2.3335682947828165 11.7545654177617838 11.1980065699348508
  2.5690908167650766 13.2088868865764866 10.7005699977027025
  3.8560718417331445 13.7541178228317253 11.3154025383636796
  4.1518092556491153 15.1952374970032977 10.7534548707409208
  5.5616338127834419 15.5021868824721061 11.4142556632586505
  5.9970170308176698 17.0306029942019137 11.3841710323976528
  7.4655126993694871 17.4772816482256523 10.7600679633800969
  7.6431079458136288 18.8746821596408019 11.4956712198285604
  9.1775509676305482 19.2983908782019782 11.4982202328153580
  9.2794156678079052 20.6731828645751463 10.8519809999241001
 10.6931468035895278 21.2717826428541201 11.1957435373615937
 10.8389410168828633 22.7089503553965031 10.5675283179492094
 12.3055724619164604 23.3304665659631141 11.0130420185631621
 12.6967030025386318 24.9104823294367819 10.6444042641843009
 14.1054864058790912 25.2523480494489867 11.3105353474637038
 14.5467593373308155 26.7834122323955022 11.3211679818642477
 15.7498066275391349 27.1289106299368612 10.3494177508602423
 16.2360985588628814 28.7205644527504624 10.3119765128851544
 17.5800819326442301 29.2285121110599668 10.8848769561787009
 17.8368551669304516 30.7741568658202453 10.4175060258808845
 19.2305129519808702 31.2240589061905034 10.8683742741638127
 19.4049424351166344 32.7996948481225772 10.4113453971629024
 20.7914867313332188 33.1970483093767754 10.8991146369299319
 21.0111030924016582 34.7710094077168250 10.5727869092319029
 22.4521325731830679 35.0586725767661278 11.1557975039830115
  1.4855887163634880  7.3019245803311792 11.6725767989626075
  1.8780277939107688  8.8807632493193811 11.6157158366698035
  3.0310453273831808  9.2384643636997659 10.6645067297609515
  3.4813006561865749 10.8261849957500171 10.6112635338860137
  4.8125836323600808 11.2627058572920085 11.2414484539233221
  5.0513175001485369 12.7989443893416492 10.9009394149261087
  6.4627817438977448 13.1042797860862308 11.4815667184689989
  6.7070634364254573 14.5286790107466164 10.9282912353715442
  8.1208841540560890 15.0391820471552222 11.4822936641464466
  8.5990753413465733 16.3386022108062505 10.8192290919331278
  9.9958014909349142 16.8663020314686065 11.3984709001817901
 10.2504396733957979 18.2661541554012317 10.8667238227272467
 11.6491223707768476 18.8521108693473032 11.2653520999508956
 11.8030472599545071 20.3028350829857693 10.6882416705759145
 13.1897909059374658 20.9121685249176892 11.1185070994552344
 13.3783596747823879 22.3553756313027705 10.5263356499128751
 14.8559891112643303 22.9040805828035872 10.9711825167427879
 15.0356748906176509 24.3518702901517763 10.4478427720814064
 16.6395532014453984 24.7514930254347689 10.2296372578855710
 16.9324956506068958 26.2263657822903014 10.7672900725270306
 18.2794621927860490 26.7565964376509839 10.1837124927498373
 18.7393975595876654 28.3441557513123357 10.3550872690972664
 20.0054923800587510 28.7233470208769113 11.1868729995697169
 20.4056901897647123 30.0817558652584722 10.4720368025502903
 21.7279190978196119 30.6360504867520973 10.9578492194745092
 21.9142142982458488 32.1048881020374566 10.4277872955062545
 23.2872173885995437 32.6055487064926837 11.0172951105564287
 23.5155579750335946 34.0440260522329297 10.5764718272618623
 25.0676256084837625 34.4964502000272404 11.0633138943278588
 25.4539057965486464 35.9072943902915185 10.6301509027674523
  0.4509455290611220  2.9207278252866233 11.2452051845962675
  0.7189197898401966  4.3427324163809784 10.7116524041201142
  2.3330172984076745  4.7987818710078924 10.7054083868729286
  2.6937841773584728  6.2703375478433685 11.4197238827469079
  3.9917238756384794  6.7814581987550717 10.6839068688629570
  4.2467513424823178  8.3240759763367596 11.1020397043216974
  5.5779180867912297  8.8571159918622122 10.4623872532837972
  5.9931504881547895 10.3904410783292960 10.6363470265993350
  7.3287316140593655 10.6124849833175112 11.3709595293880685
  7.6408733970943343 12.0818283512859921 11.0101883224319828
  9.0067608975556048 12.6075540821056116 11.5532836419618690
  9.2325323807650790 14.0605757779787588 11.0559149953332003
 10.7395642708126573 14.5530321458428524 11.5025293289652240
 11.1805630510102887 15.9324557955628894 10.9482923099132403
 12.6060893177202153 16.5151117307239907 11.3039184218929325
 12.7915079308077555 17.9427311773321492 10.7276130020438973
 14.1623992522908573 18.5337516037412797 11.1731655731744066
 14.3389495096254471 19.9984153716581403 10.6128725603058172
 15.7362093455275236 20.5800881166694367 11.0571030769964818
 15.9539737932141374 21.9992025828439139 10.3720483304411744
 17.5735930378095304 22.3752487865755079 10.3796315331406390
 17.7840024839348665 23.8554743389099251 10.7873036464730809
 19.1919513787896392 24.3388308963926683 10.2144515780771421
 19.4156490822551540 25.7913942803193308 10.7439362981192286
 20.7912468901545502 26.3411094315488512 10.2956160803203609
 21.1239755869674006 27.5924602815960540 11.2272382317142529
 22.6055001601630678 28.1834170856423860 11.1053771381967863
 22.8946904531888471 29.6631567197226680 10.4841350907951920
 24.2320954644664788 30.2307938048665008 11.0121951048789484
 24.4943205568389146 31.7161087761067506 10.5596379208525732
 25.8553332668770324 32.1576887992143625 11.3134464719431076
 26.3382754740756901 33.5244480903936832 10.7115468623916481
 -0.0038885716563289  0.0122820592086827 10.6982976852573710
  1.3636882049745114  0.5489031906196228 11.2319520270613236
  1.5794481639335218  2.0173661290271707 10.7564659178281552
  3.0316070345037338  2.3843752524376010 11.3667675710147176
  3.4863248419271256  3.8922336027465745 11.2882030881892383
  4.9354836952459209  4.3140074486192184 10.5000896236184378
  5.1958277912965460  5.7750034088085593 11.0582866244914602
  6.4944369257517440  6.3628438252492385 10.4558727254513091
  6.6885088501171079  7.7726119123851420 11.1438023266002713
  8.2088136958553442  8.1876353727019797 11.2617437999411134
  8.4909062740368793  9.6776031803867628 10.8351174168308475
  9.8224984403976840 10.1644770246642295 11.4477375420926109
 10.1534840519687215 11.7094480919074844 11.0197920384011905
 11.5769801710584836 12.1824428097228701 11.4213545259659153
 11.8277713808052685 13.6556655725329552 10.8863574292303724
 13.2582885769552572 14.1743281441289071 11.3189390909668361
 13.7300783983455670 15.5580229897398201 10.7016177864721111
 15.1063526212712187 16.0935561379026453 11.1371458700187933
 15.3143069401564613 17.6052532492409348 10.6657039941378482
 16.6444680483943763 18.1440182710950815 11.2160653538434669
 16.8829836713474251 19.6293457020763498 10.6611575722319039
 18.2854430061473252 19.9302779347070818 11.3068921921623318
 18.4731361051399041 21.5082941317944503 11.3421048644514837
 20.0136311878414546 21.9060099677287106 11.3247948988520868
 20.3307528728381897 23.1525082646136653 10.4412738341212705
 21.6730263780683181 23.7350472220339661 10.9530002219055476
 21.9059773567971128 25.1201885217096539 10.3106758086290515
 23.2499609142023509 25.6734148745394819 10.9665582279412668
 23.4631779735189170 27.1097059531688949 10.4581443387103992
 24.9417092512873033 27.6981421484400059 10.4447589111918830
 25.4117947100900246 29.3017040325517826 10.5464692227528811
  6.0826090289782249  3.1672629022036309 10.6298583850677808
  7.4012213356407504  3.7423543162109221 11.1592934124844554
  7.6459726567703434  5.1141917459277142 10.4924734425683557
  8.9744997143792986  5.6437473001604941 11.0932207671746941
  9.1861360133405867  7.0977990588006348 10.6444330721271019
 10.5858270326605286  7.5971880648724657 11.2350534229241319
 10.7978306477279595  9.1132200041382898 10.8715051140292687
 12.2107523240588218  9.6756277722459814 11.3023623006174052
 12.4502608435785476 11.1453668933119197 10.7206410278328246
 14.0148340062957715 11.5777069305633820 10.6210350637930961
 14.4010371838175022 13.0953048391584641 11.2260723599830019
 15.7209762587473971 13.6043345493754178 10.4950588838964585
 16.2256830641333956 15.2118938206289123 10.5183847856866368
 17.5451022363616111 15.6801432019343228 11.1674538576735145
 17.8166211351656862 17.2051908367257873 10.7765136276610427
 19.2311085614248718 17.5112604913686916 11.3391119536353173
 19.4612674745541447 18.9217446975061563 10.7838621685112095
 20.8625302023542609 19.4410457312129381 11.2093831106033548
 21.0132419086544502 20.8470346531639130 10.6654446075857035
 22.5618311436280621 21.3049056357924549 11.0438241559306540
 22.8898890429264554 22.7215653107669695 10.5466551481258843
 24.2312299910043265 23.3062121100539485 11.1317185836751946
 24.3993721580594745 24.7184292480236287 10.5608619462924196
 10.1780620045036425  4.7067210657668639 10.6182480992779062
 11.5649673476870607  5.2448053314397978 11.1093227439766480
 11.7309003882401512  6.7233922356606728 10.6538052369217571
 13.1010951640975506  7.2649810022211412 11.1683470472467636
 13.2892465676754803  8.7642193990312069 10.7563799466971624
 14.7331151808838321  9.1970538653137304 11.3618647447008634
 15.1427318593796763 10.7444917230873802 11.3349315567536468
 16.6238302280029622 11.2232131872013507 10.6800984595726476
 16.8924202125542813 12.7541670365967814 11.0567164451069733
 18.2796326897854300 13.2666436495243723 10.4733872050705870
 18.6984227050557941 14.8316299484988416 10.6132169017358979
 20.0429242716283049 15.0425005875743469 11.2966620820054526
 20.4095350752322879 16.4948993632364207 10.8349039115877961
 21.7676785914544269 17.0658028024682800 11.2568459109171268
 22.0080255930846249 18.5079186149295545 10.6666580341553665
 23.5122253156478891 18.9366428086828122 11.1288504444047955
 23.8667024820675202 20.3388223100121266 10.6512503213897531
 25.0947873441157441 20.9696818687354778 11.4104535912654601
 14.2715450488231355  6.4043933656129157 10.5781289470835063
 15.8559108286388195  8.4143490713996307 10.7010261508365563
 17.3165580421349219  8.7923125922090630 11.2869978406071763
 17.7392512729256318 10.3301090642549269 11.2715306816157774
 19.1703342724135943 10.7697560316313616 10.5748620423107731
 19.3697863028781398 12.2112485200724183 11.2122121584237853
 20.8986832040429817 12.5851958964634214 11.3018293311934173
 21.0388106205541163 13.9873604819445543 10.6996048683512992
 22.4765063323877747 14.5713796345879292 11.1308294791202780
 22.8808713156191921 16.1482374104232029 10.7428141799874766
 24.2854476551058482 16.5302250275510296 11.3248823798393961
 24.7766000153966246 17.9603398783128476 10.8173189810124004
 20.3549000741866557  9.6089596078178143 10.5782277435346508
 21.7000371916629753 10.0922787318773199 11.1600206004440494
 21.9404140698183134 11.5226581736950919 10.6880077019889193
 23.3152765052825082 12.0736973128685499 11.1947510750163897
 23.5188277362449121 13.5411592103121592 10.6816103463407632
  0.1215379117574556  2.9755789549504845  8.6433799117100918
 21.8810513221043585  9.7920131398943209  8.5589471956371330
  2.5322832230291987 25.3055157929317112  8.6517184397014972
  2.6154951578300598 20.8722195015737277  8.6016555824445629
  2.4228799961614351 22.3122903980596341  9.1830279797298768
  3.8564844676787158 23.0286413183550671  8.7963345634351402
  3.7491169667508952 24.4902401528286937  9.2261828913899091
  5.0808113262805588 25.1997504517534381  8.6781155864162649
  5.1241825278236615 26.6487131772878492  9.1553129615346336
  6.3395200660212128 27.4948617317509019  8.5283558327346594
  1.3738934859826788 14.1813669460431395  9.0554088426986326
  1.4704699372423895 15.5774368482594490  8.4667819228705099
  2.7144490048050991 16.3009662503031620  9.1259268166358911
  2.5824014971977571 17.7744804210885370  8.5339167474887869
  3.9080042661379082 18.6826266807467896  8.6156871831420379
  3.8609522567964665 20.1677761240858864  9.2577541403149350
  5.2257291488368933 20.8492668183366909  8.7971573117818842
  5.2900894425309080 22.2983693563713921  9.2509575875006309
  6.5226672486399595 23.0934223256177624  8.6498964368985725
  6.3154266636505811 24.4687712791807179  9.2381160201570562
  7.6984427570837557 25.3812672029633219  9.2257447837247941
  7.7700317148215996 26.8356333620323255  8.5919778112431295
  9.0505599298158685 27.6593763770043672  9.3108914439055415
  8.9367642061587720 29.2729543639569414  9.1694818544595709
 10.2252313612585031 29.8801029636533180  8.5909535532817820
  1.2399493768539225  9.7187935139961006  8.7271174204063691
  1.1787578521717932 11.1984166134345369  9.1448267222176298
  2.5288075012295614 11.8597099726273569  8.5802342322571814
  2.6477673953764480 13.2864833938313485  9.1256388063955427
  3.9634128635378301 13.9999164867836008  8.6949001746037187
  4.0335316842472810 15.4484686290325648  9.1883894044341776
  5.0954806888770463 16.3619906756923790  8.5858112587650997
  5.0770147590081649 17.8757739798036681  9.2189215795940349
  6.4192777477491152 18.6235481617585883  8.7733837182862882
  6.4989571558010555 20.0904600714996420  9.3385412342170735
  7.8038305932813090 20.9520211774433740  8.8625218690140439
  7.8916215620544214 22.5338832130136026  9.2049760501943219
  9.1352658911955640 23.0915136602941757  8.4793198190613328
  9.0120550033359148 24.6800663338981927  8.5059169877140910
 10.2843194072007815 25.3407570487360623  9.0840072687783771
 10.3084698794268270 26.8933018677553370  8.7098388140408680
 11.6278040591049123 27.5043261639034498  9.2552979490543450
 11.4396700553280883 29.1738661307678449  9.2293126489092625
 12.7024387022566003 29.8261947777320309  8.5968920447610024
  1.2047654650204309  5.3029804037644084  8.6278464875269378
  1.0470290962928084  6.7706063183913985  9.2255247962318929
  2.4884924558963184  7.4935653758230520  8.7937523749452833
  2.6120135447763668  8.9759048553671867  9.1917858300468858
  3.8726968189090449  9.6321023359577733  8.5175107256681706
  3.7866313409414030 11.0759785671014086  9.0626444136187896
  5.1592760216491564 11.8375239472477496  8.6825282526352385
  5.1802513526300977 13.2207665546251931  9.3474914831688896
  6.5111826258628911 14.2091292495496866  9.3770552764716371
  6.4318026175243395 15.5077159814017165  8.4593986952870317
  7.7410547991789853 16.4107052091862862  8.5142314331846123
  7.6075291436927044 17.8189290675386935  9.2454523988880730
  8.9728331025452466 18.7151207252638514  8.8587574898842583
  9.0963282027733605 20.2918251472561124  9.3314600348791767
 10.3921044909409517 20.9090040452586834  8.6819704173744672
 10.5042750254493438 22.4382316834441475  9.0474331572392241
 11.7504241316333111 22.9933577049624240  8.3781957616445908
 11.6409679618575534 24.5899433141276873  8.4112211683306430
 12.9142927909532013 25.1913171448195179  9.1122606348426807
 12.8193293620631739 26.7547821376736827  8.5106555213505661
 14.1474056839881683 27.5958213194038464  8.4052366929721636
 13.9552413621107121 29.0419722862103988  9.0251838185480988
 15.2400675071955707 29.7688705116545869  8.4174121345137340
 15.3344767503712180 31.2044040627786821  8.9953122983054516
 16.6323651633740894 31.8810736441038785  8.4603529349134341
  0.0057750949104370  0.0127344223561410  9.1658956716612128
  1.3064418267399567  0.6965457884827320  8.6663682253288616
  1.3919451568124535  2.1734959083887397  9.1921277873272231
  2.6021539201119817  2.9883181235792695  8.7407675707402106
  2.5121910281628890  4.6252720546451673  9.1514763925927802
  3.7645393412187653  5.2870260653050885  8.5744164458531813
  3.8367545646086949  6.7444583190869665  9.1389188767962661
  5.1245049643762535  7.4338836533385431  8.4930789259810844
  5.2713298967510687  8.8789620843664636  8.9285131639748538
  6.4598253796291667  9.7132961457690836  8.3040362625719162
  6.3647604495564600 11.0019271819114763  9.1969871369401552
  7.7005932859836683 11.9411569298449152  9.4528629902110097
  7.7617126085500860 13.4114085929089022  8.9317276897997218
  9.0554235561220384 14.1396150062703452  9.5063841332816956
  8.9077492907018421 15.7888478536617392  9.3454309753464369
 10.2154178594274523 16.4376830041441444  8.8275876576740053
 10.2546752182874048 18.0029946814723409  9.3054400584705039
 11.5491914783747482 18.6573847918326585  8.7026545134227913
 11.6791871563639997 20.1610912565624396  9.1515195150877204
 12.9875655345566798 20.7821943087725032  8.5572526199774437
 13.0901132909412254 22.2900044759667537  8.9710367733253076
 14.3172119288027488 22.9791942759236782  8.4151821242312934
 14.3667174739324963 24.4684056228863618  8.9977792972698065
 15.4151928638445757 25.3214948456402027  8.2884141136767173
 15.4558385930141498 26.8150063133283183  8.8262450425968169
 16.6917597604725962 27.4916732428401644  8.2034336112269930
 16.5291707856072989 28.9269575782246733  8.7662439337506228
 17.8700495285658469 29.6215998819104271  8.3153748201259887
 17.8924834981244238 31.0396162612922595  8.8575309458992475
 19.1479487783184652 31.8519268688767170  8.2345744324245604
 19.3113046717325467 33.2158535473407426  8.8926041348034133
 20.5540898942947727 34.0800585848837017  8.3031622597020132
  3.9050433297857521  2.1328697531711400  9.1358712202239332
  5.0720731491044049  2.9723340656271442  8.5071639844508660
  4.9966216489202129  4.4670138791810041  8.9595596814762519
  6.3465625734311013  5.2300537118863986  8.4104079810297172
  6.3991864027197591  6.6668445276680055  8.9324969559783405
  7.7502630873787073  7.4308049968833023  8.3940812752756866
  7.8826580573941358  9.0179923337926287  8.3294655936940867
  8.9164867935406562  9.7013690443871141  9.3068244965026157
  8.9951823412039857 11.1949495574812445  8.8967030131700877
 10.2839388507050113 11.8567505614527438  9.4669892326726384
 10.2815105652742513 13.3614993181726316  8.9317579518403623
 11.6106571935777083 14.0209928962930164  9.3622648717081063
 11.4353429018655834 15.6782483880003696  9.4027119984652572
 12.7015635016559951 16.3498675996484693  8.7202314781392118
 12.7963392796798630 17.8560846375031019  9.1803440980353628
 14.1175621222042977 18.5012157662407191  8.6133614845917705
 14.2312768452335305 19.9863073824884268  9.0666848958207691
 15.5143546935636252 20.6226437286494786  8.4765393287961324
 15.5995245326463063 22.1553239629773842  8.8349547168662532
 16.7509840711597597 23.0031333806051741  8.2479775733461036
 16.7251569143465844 24.5856571014726626  8.6762436606971534
 18.0164965414843117 25.2522413833160329  8.1312111853787972
 18.0789679970674229 26.7210553630971681  8.6348052445777892
 19.3555480936418220 27.4756668205742614  8.2059930321707260
 19.1416454511052656 28.8354054553181420  8.8831581441513592
 20.4776890605652291 29.7332102369919831  8.9450495238053129
 20.5736072692333209 31.1496312766596759  8.2384825265510102
 21.8963787298428407 31.9604656196900017  8.8872160522133257
 21.9852398956148001 33.4004859663255971  8.3171620600328389
 23.2753401638971553 34.2036327768156383  9.0483917389425237
 23.1852674061650532 35.8437002967255296  9.0731231977718689
  7.6831719554234059  4.6681394349200378  8.9655793416552019
  9.0122935741521530  5.3647990487643114  8.5098521389580224
  9.0660219503144752  6.8721754507330557  9.0477181240435876
 10.3776713709074890  7.5858872889443756  8.6533850883222705
 10.4322245075572528  9.0239139187671018  9.3317669611715299
 11.6882440615723553  9.7018241012627300  8.7413854416608583
 11.7841990103068959 11.1579489475586211  9.2641350942606646
 12.8771364946663294 11.8643823535095798  8.4121372116180897
 12.7349003635286611 13.4516369779327558  8.4004630381210639
 14.1604200947483729 14.1464339457991848  8.4502377949850107
 13.9788810057856594 15.5682064541585063  9.1045114448824460
 15.3041580974865905 16.2791933738380230  8.5516413990285969
 15.3791923299637769 17.7085830594109055  9.1080081435381643
 16.7392468298664632 18.3939437969721418  8.6306023255121644
 16.7969423719585613 19.8670491561849403  9.0644189282819525
 17.9495921565812253 20.7495563590953545  8.4325859071105818
 17.9697068442265362 22.2703671220671851  8.8501832523014841
 19.2802304904350983 22.9695069760049613  8.2916707242177932
 19.2602060405945856 24.4733446808895216  8.6577654952169070
 20.6073577170020457 25.2635364899740225  8.1836568218070642
 20.6458393831527403 26.7020439978677828  8.7405725894955602
 21.9544582249732549 27.4324806300491133  8.2435495699200292
 21.8308800060192709 29.0164950542428031  8.3005095533890980
 23.1003758702217716 29.6671558454645918  8.9340966905366699
 23.1852657869275518 31.1714418163945091  8.4648432975002219
 24.4979690034851352 31.8924982646229793  9.0093262599060786
 24.4756759782999289 33.4249915497369230  8.3979815235105342
 25.8035113886680314 34.2858257964828752  8.4661588970935266
 25.6706934341130584 35.7835779677225361  9.0752688152672238
 10.2183888700340102  4.5884273306386776  9.0608617163035294
 11.5274457932628387  5.2811916683292486  8.5494372771467031
 11.6356112216031509  6.7526354245820039  9.1068048589551793
 12.9428514065716183  7.4309812777068718  8.6059834256301269
 13.0306647304987013  8.8831912853962738  9.1981573303529824
 14.2748093418264528  9.6363398405526191  8.7224468591633499
 14.1896215580665697 11.2604246417476563  9.0908379548855969
 15.4713211275894409 11.8620925122318592  8.5617474054373588
 15.4979882976601857 13.3586788540219104  8.9783527664663776
 16.7569203489585554 14.0371983213022045  8.4263544939770085
 16.5794897940180768 15.4745351263534197  8.9869083756027184
 17.9355756575478082 16.2266776762135834  8.5972195605789370
 17.9460008314820350 17.6249734252580694  9.2453384946203681
 19.3034285255953293 18.6223681480918479  9.2670231968935006
 19.3522680311259876 20.0276647808886956  8.5293783361428019
 20.6636176371849771 20.8866426353975356  9.1353055536909959
 20.5563001846675704 22.4937440278793979  8.9993533122417606
 21.8710264726156787 23.1700758498691961  8.3987855663253050
 21.9325931875018085 24.6982667729088341  8.7598181867589648
 23.2934173933905910 25.3795124556286602  8.3556563000141750
 23.2771873832929792 26.8503111218576223  8.8890975616976746
 24.6860071706788702 27.5361590288348808  8.8769435067406253
 24.4807150521253725 28.9593939493193773  8.3972774793239573
 25.7345561278112598 29.6503821226565165  9.0224172681871782
 25.7425454861417080 31.1305943893336838  8.4856495107823253
 14.1862252238227047  6.5704899482034191  9.0407193861134907
 15.4672308661177595  7.3122711428000233  8.5438569329763308
 15.5929223621038204  8.7473825029641645  9.1788332480376269
 16.8070685178892596  9.5324455435979321  8.6864816364840340
 16.7208280362128399 11.0889472464164189  9.1243223876643764
 18.0066859788288092 11.7859072033936734  8.5245572994722618
 18.1027357145975607 13.2564204816734872  8.9372544331135551
 19.3602467919177172 14.0743633150027030  8.4763527391860052
 19.1164430477094207 15.4149214036694300  9.1551647718477032
 20.4615865115532607 16.3191516815109381  9.2997061570055095
 20.4970917675298558 17.7928926005581651  8.7177401608139942
 21.8576900795115847 18.5470270672740902  9.1101530979646039
 21.8355967465223557 20.0835340202309993  8.4501439755514678
 23.1852747079579871 20.9654679623102034  8.4342543771397711
 23.0972644475976594 22.4793070573645686  8.9791318281219628
 24.4458166749742105 23.1353537294169698  8.5300226348833554
 24.4647230255542141 24.6033568553275011  9.0005806048295227
 18.1393314871844922  8.6747497225910042  9.0195922168707110
 19.3230211994042875  9.5773367220767138  8.4658206234888898
 19.2341355691598892 11.0358821793946724  9.0376175568264134
 20.6029218309774045 11.9324099485184103  8.6557080353708056
 20.6833507301053707 13.4810107590003021  9.0788716730554828
 21.9709701902601324 14.0661964718446075  8.4844761669410111
 21.8228217350386444 15.6323468646070847  8.5660936023958278
 23.1169241656728630 16.2929405220489052  9.2133926598523654
 23.0729039022542928 17.7853080803621921  8.5358679057545519
 24.3989163393431419 18.6971285193829395  8.5353914180223516
 24.3114061019420156 20.1823849027337197  9.1268728068073415
 21.9165951306312579 11.2903338890689380  9.1186249700263922
 23.2487842685926971 11.9513936585826261  8.6270521178704609
 23.3155907643778271 13.4341915525766549  9.1119939065468394
 24.6048705605048532 15.5625614420529637  9.2135786317964126
 15.6898947097479251  6.7213424247422360 12.4210759772319346
  2.2567894139787450 25.3869733129408814 12.5829173697496532
  2.8187028151991291 23.1868522766106544 12.7238284466262694
  4.8935570402812667 24.9391419122378224 12.6604783809564978
  6.5997859333354887 26.7621031281707289 12.5508846071096158
  8.1030657621710667 28.7563915378398036 12.6934711243779148
  1.6732426508624292 18.1402198172587035 12.7748965953722671
  2.8299996741504239 20.0736602110806217 12.9197436163982928
  4.4093848337610799 21.7246598359379774 12.7745186463177038
  7.3562369339975247 24.1672240340462494 12.7088706125085569
  9.0875251057579902 26.0897283704573866 12.6349593416465087
 10.6319994033917737 28.1472903301886639 12.7049793857384454
 12.6100389624548548 30.1471656923878619 12.5559084612264176
  1.3520469602168244 15.6659091677602529 12.5193076353225656
  3.6893378819481337 17.1231556970969052 12.6908111731752591
  5.0369304492007352 19.3354305071633448 12.6675001195685066
  6.4898091503116282 21.3026369130506410 12.8152656322527765
  8.5861992844580595 21.8300183525687679 12.7832529580886103
  9.8652384914299081 23.7669671944333558 12.4541112558065166
 11.5747462427376320 25.7137480650128687 12.5679383656013233
 13.0384959930843056 27.9233510012999773 12.6279085815782572
 15.2135190370059412 29.5845548729351933 12.3778851221641215
 16.7296499445995295 31.5913090595005350 12.3974957904316714
  2.3584721496773220 11.7212866898901336 12.5756966619372204
  3.6617516647752932 13.7723887855901577 12.6820622691580347
  5.4234204180011440 15.2010514900161553 12.7496331174652013
  6.1140500216380014 17.2397394908561310 12.7301664331279429
  7.4065958063974930 18.9284439730889886 12.8369193787216247
  9.5219768149259068 19.3771634716424117 12.8198924654534778
 10.8531772519549499 21.3564865131820909 12.5579029953551853
 12.2981579051015775 23.3284057620351639 12.3891063309999794
 14.0874957843824973 24.9737233707651818 12.6498977762415521
 15.0331986434186113 27.0312933891729408 12.5807394479197274
 17.5271762254159675 29.1924266701824138 12.2540531996977453
 19.2606706788067115 31.2438428854648578 12.2427357941021118
 20.8104540060208834 33.1250730263128759 12.2766929624874361
 22.3744101130001312 35.0774113596988713 12.5293831246620755
  1.1718190901379220  7.2040984824322596 13.0020883644174923
  2.2775668632076704  9.1673823150778944 12.8957005024782916
  4.7901986891314738 11.1353777346143374 12.6125053693501474
  6.4649945111380500 13.0171986389558860 12.8554631511333390
  8.0015738374417396 15.1417649483801799 12.8500619095189457
  9.9562479187032800 16.8824080347963630 12.7763558624254312
 11.7773823324379698 18.8945688237575489 12.6343929669454571
 13.2532019007458217 20.9723055246296859 12.4930165981631998
 14.9358803837005034 22.8698289318889323 12.3392909694832280
 17.0408037035181508 26.1863068598323316 12.1314033328734325
 19.7752130067840248 28.9142174302096144 12.5207819436912384
 21.7036665346131770 30.6079424831051661 12.3385287913940722
 23.1533193449303241 32.6085529648897534 12.3864490117740793
 24.9098937433495777 34.5575740290379159 12.4300636460870688
  0.4165825311999534  2.9197768788942375 12.6216364984302025
  3.0673527428277110  6.1071933485662422 12.7295201716222657
  4.2980782167813132  8.3609664531594543 12.4671098938460627
  7.2433723548395319 10.4035813098340917 12.7296261938782358
  9.0000187795417421 12.5842577896015939 12.9296759577001303
 10.7040824807133799 14.5435582212808505 12.8772434772753357
 12.7246074462541081 16.6389814066649393 12.6701506414552227
 14.2050749856845329 18.6017239758255819 12.5471194004680360
 15.7389538322546620 20.6651619655299434 12.4340895779174332
 17.8215588631096296 23.9768534680479029 12.1511224699995690
 19.3537145590268267 25.7816634175657988 12.1137944042527401
 21.1268389110935537 27.1184055533761530 12.5127734097519294
 23.0457353313734288 28.2617878607086084 12.4196862390293408
 24.1620500971848990 30.3286873097635876 12.3809362815637680
 25.4783012749178042 32.3916071471358507 12.6135186309430232
  1.3104715085807943  0.4874678220363931 12.6055773087189564
  2.9073532283219139  2.1212655448692126 12.7064320663986461
  3.8114281608454195  4.0864985015626614 12.5958705997183369
  5.4070755412215128  5.7022848096527667 12.4112506216487315
  6.3758513020546816  7.7161441350266928 12.4690988510559304
  8.4771365396948521  8.1644545282222936 12.6113514485190965
  9.8386949471353908 10.1725498986960758 12.8231127988796274
 11.7729300919512099 12.2148239549709849 12.7838179094184312
 13.1065816692566024 14.4231433898740153 12.6647428198946059
 15.1815992563753159 16.0311094322533911 12.5146639588956159
 16.5541589893828700 18.1316189287012683 12.5904840957444382
 18.2563161986138844 19.6291079379426208 12.6513762277533548
 18.0065626883709058 21.8018471594224827 12.6006957701014688
 20.2496994769802505 22.0674352019758544 12.6625281312193643
 21.6500680562330245 23.8651252477590141 12.3201403945350840
 23.1660885490832023 25.6899363200361144 12.3424576761415477
  7.3491139328653059  3.7972380122725218 12.5326404273527032
  8.8991774111636364  5.6160300076428200 12.4713315924336303
 10.6376524056054240  7.4452841004199151 12.6028867208671880
 12.2583242251752687  9.6964783127483827 12.6793927811404625
 14.6431627325089195 12.9565128531962035 12.5598459897739225
 17.5379302140114994 15.5933419904708117 12.5402320271000942
 19.2604631666879165 17.4213192026416728 12.7102227546000304
 20.8654223928188820 19.4621094843952385 12.5901066240763413
 22.4911061582176650 21.3182483013623347 12.4153928716235775
 24.1505400168543751 23.4256248855569744 12.5013506630462601
 11.6192324414036445  5.1853330985894468 12.4834011020173516
 13.0933358017238053  7.1477043095717478 12.5394173182766089
 14.6509932323042555  8.8792341289984602 12.6890129422270359
 15.3417423420415542 10.9461837759133971 12.6694500568270936
 16.8875542561397722 12.9210273574935446 12.4161190606559373
 19.9953483733928934 14.9152164248196311 12.6663149080243063
 21.7979733612796913 17.1013907377832588 12.6344934512598943
 23.4118189108971784 18.9617414188258486 12.5095613194331357
 24.7415481812005282 21.2056157705965944 12.7115210778417396
 17.2215746461964514  8.4751971014751781 12.6160421179057547
 17.8513389440495871 10.5627944888744683 12.6156957052793963
 19.0489647989340405 12.3453302727658247 12.5280800707037638
 21.1781479551660006 12.6073833055548903 12.6426676220701975
 22.4606729428146075 14.6230181123625762 12.5117524255679111
 24.2715533789799629 16.4881405135777541 12.6961681536189364
 21.6402450476029173 10.0837352494846968 12.5370352955219300
 23.3671583177880358 12.0665049306324583 12.5689509405939237
  0.1509534201626284  3.0115925570672708  7.2663549952455684
 21.8821109351786092  9.8035184491658107  7.1798030592612969
  2.6216308410797518 25.3674402994054518  7.2804645599869797
  2.9237078817900746 21.0673371495536053  7.2753183477651966
  4.0011399372648224 23.0591774790050152  7.4263253350979976
  5.1193603061750261 25.1858031587312077  7.3002974007336778
  6.0530673898531502 27.5795953425020173  7.1915965574309011
  1.5949116343883492 15.4415913147751525  7.0988814713866439
  2.3814898626950018 17.6119309845731529  7.1795372975578404
  4.1386220254603066 18.9364438905958785  7.2872129180894136
  5.3415043912502318 20.8950504089200599  7.4270430954394691
  6.5854159902118985 23.1106159539475442  7.2760116703947242
  8.0910944591207876 26.9112219657115581  7.2712276127667490
 10.1976729278160292 29.7809269617250152  7.2191455691075248
  1.3531078422585490  9.7423660484341958  7.3518202934267878
  2.5210703793990130 11.9081845283309971  7.2032702544446394
  4.0270757661671883 13.9888933711535515  7.3164991725407020
  4.7072421279972998 16.5741852224959310  7.2691051416800256
  6.4751942034276908 18.6336466622322341  7.3949117417750410
  7.7605837447352854 20.8987572189512214  7.4844840143214348
  9.1576710186051997 22.7698563749998151  7.1481647028105009
  8.9273200074408585 24.9365493721696652  7.1642693863286615
 10.3276168521417713 27.0574646453698229  7.3501846139255766
 12.6042175563800392 29.7728225962240423  7.2204002117160941
  1.1347775816706944  5.3581072428892664  7.2524965239896542
  2.4664895124964170  7.4811700830912935  7.4080282431363207
  3.8437247402309880  9.6205296751863223  7.1465116667339945
  5.2029661398021148 11.9546078426313631  7.3138130798112835
  6.3397691191827938 15.0502295881329236  7.1691710303187506
  8.0062405938043497 16.5665779135520310  7.1820623784186646
  8.9548196520091743 18.7545114391888177  7.4849573845098778
 10.3393377795081243 20.7566587289486719  7.3176467287664231
 11.7634512598143139 22.6703784937387454  7.0498691186037155
 11.4664296695698322 24.8294314825978049  7.0795575475666244
 12.5400617466231843 26.6686945377271236  7.1794263374076159
 14.3310993711735843 27.8121850303092231  7.0578658762948123
 15.1415535089540363 29.9134762391376228  7.0515299348556484
 16.5168570632162925 31.9484262732325242  7.0909637975747444
  1.2426106492808364  0.7190828553067710  7.2931166651364601
  2.6057211190927796  3.0533485594894394  7.3604734173860935
  3.6767530374054815  5.3137444875897017  7.1991950545574399
  5.0564590949690773  7.3844096292940131  7.1170366568803045
  6.2663177448520733  9.9144999624782404  6.9639136442703045
  7.8328760256554837 13.3969462663342966  7.5619838185646504
 10.2657658347091623 16.3991748448351764  7.4584298879207118
 11.4947490209822689 18.5995989753523467  7.3276938898104689
 12.9663927032328292 20.6675184001156111  7.1860849133001432
 14.2633107186628703 23.0100412873287112  7.0387262038536695
 15.2167742966146058 25.3935202706507077  6.9278890295083855
 16.7133314208280552 27.4830537064745641  6.8282461581814395
 17.9042909764902660 29.6378378694744384  6.9375320577783715
 18.8296256044066617 31.9977807665152767  6.9123898502768357
 20.2447181798251101 34.2168160252288374  6.9751544674207171
  5.0694043087139766  2.8310255549980505  7.1383028615931172
  6.2760423205231310  5.1225696400075087  7.0426124115603370
  7.7014901146438532  7.1155204970216355  7.0523664224038862
  8.4205543582710334  9.1940284538008381  7.0786024626366757
  8.9892203756768918 11.3150771051426222  7.5313518963720725
 10.1790813648816627 13.3416799733222415  7.5668658909644941
 12.6112269008438194 16.3309733050924777  7.3436928549938267
 14.0527211908757472 18.4486522429803266  7.2394771613567181
 15.4221648620809866 20.4767374761248249  7.1103052524795061
 16.7228277911027021 23.0180927186894344  6.8729719086000971
 18.0051886706882698 25.2345281570590920  6.7546829461371667
 19.4891276024022595 27.5683070290809802  6.8383229055733015
 20.8391866227835472 31.1828548748175933  6.9018673900689196
 22.2472958901077398 33.3676909176498668  6.9771392841162383
  9.0917997661606833  5.3248496705511865  7.1353701158076763
 10.4009067704134619  7.6631392298162346  7.2763777599917487
 11.6131556270183989  9.6812124646869027  7.3725513002321410
 12.8534308584288510 11.5869691689904872  7.0726171462867953
 12.3160221198413016 13.7877024510577755  7.1369980841717924
 14.4466656415302950 14.2753021612999440  7.1083321068323473
 15.2794773956859959 16.3777442062977592  7.1780579645100868
 16.8144469983251064 18.3421651834209491  7.2529120527637136
 17.6590972404627529 20.7916102947321946  7.0875359658556514
 19.3023488529924840 22.7482969053150654  6.9329745447214295
 20.5844830121702564 25.1903776748523178  6.8089410412169213
 22.0480735037825646 27.1331851830603377  6.9021075450111713
 21.8100699446394621 29.2749355646421137  6.9570544586900827
 23.2443321794438873 31.1503281164477137  7.0975991406332914
 24.3983208130391631 33.2124450184994799  7.0543835167341786
 26.1393754671674117 34.4717416010502546  7.1534834783515837
 11.4962307402208754  5.3548188468575217  7.1754243110576219
 12.9008202378483983  7.5012376990878078  7.2311021591641564
 14.2940543773570230  9.6336477744077822  7.3465064342394051
 15.4668847591639960 11.8336288839036499  7.1814812348764105
 16.8576671701437171 14.0344034214810165  7.0557942934974776
 18.0166589784312094 16.2617520004426304  7.2245698116479939
 19.5689470260241336 19.8462393211901222  7.1960001411377972
 21.8628827364143490 23.0595565859436427  7.0236240751098444
 23.4849235857477794 25.3471461903299407  6.9897290828901015
 24.3877522559004589 28.9244445305617539  7.0242609886886083
 25.6253123868528832 30.9561647288702950  7.1239767464074406
 15.3395454293868312  7.4309770339037895  7.1807214254580893
 16.7719658971207224  9.6011313261627276  7.3063863143329586
 17.9865629665137696 11.7284688818417902  7.1475805039746918
 19.4699242103248515 14.1544301199702574  7.1066267407099328
 20.3525979879440015 17.7418107411693775  7.3571163771253110
 21.7089400892329216 19.8322289613088252  7.1155482366023923
 23.4614098832231583 21.1126676476242530  7.1032751883464158
 24.5417722260275966 23.1575310267228716  7.1572121990580859
 19.3216655645126636  9.5255868156931029  7.0893904348926400
 20.5566159268866784 11.9167254352967706  7.2737893729198460
 22.0569829854626036 13.7843303243671897  7.1458932656552072
 21.6013637162505852 15.8863538521357235  7.2473850286132695
 22.8981772581521170 17.6053072597135234  7.1897289919994858
 24.6407586982190452 18.8947213193827004  7.1999175826421276
 23.2964487490754202 11.8867843660692358  7.2537508609346704
